# LAMMPS data file written by WriteLammpsdata function in RASPA(written by Zhao Li)
# Total atoms: 1408, Printable atoms: 1353
1353 atoms
0 bonds
0 angles
0 dihedrals
0 impropers
0 26.7414 xlo xhi
0 29.0805 ylo yhi
0 25.5942 zlo zhi
1.78067e-15 -12.4251 2.50293e-15 xy xz yz

10 atom types
0 bond types
0 angle types
0 dihedral types
0 improper types

Masses

1 1.008 # H
2 12.011 # C
3 15.999 # O
4 14.006 # N
5 65.38 # Zn
6 12 # C_co2
7 15.9994 # O_co2
8 1.008 # H_TIP4P
9 0 # L_TIP4P
10 15.9994 # O_TIP4P

Pair Coeffs

1 0.0152001 2.846 # H
2 0.0951057 3.473 # C
3 0.0957038 3.033 # O
4 0.0774036 3.263 # N
5 0.0549999 4.045 # Zn
6 0.0536545 2.8 # C_co2
7 0.156989 3.05 # O_co2
8 0 1 # H_TIP4P
9 0 1 # L_TIP4P
10 0.162752 3.16435 # O_TIP4P

Atoms

1 1 5 0.688558 -0.2595260137 0.5471969582 3.740147571 # calf20_ddec_super.cif Zn
2 1 5 0.688576 5.031611512 9.146301706 4.791260809 # calf20_ddec_super.cif Zn
3 1 5 0.688578 7.102470139 5.393945751 0.5255578396 # calf20_ddec_super.cif Zn
4 1 5 0.688597 -2.330377069 4.299550257 8.00584938 # calf20_ddec_super.cif Zn
5 1 4 -0.189726 -1.238244337 8.599657007 3.148501056 # calf20_ddec_super.cif N
6 1 4 -0.189706 6.010334451 1.09384201 5.382905782 # calf20_ddec_super.cif N
7 1 4 -0.189705 8.081188929 3.752906141 1.117201382 # calf20_ddec_super.cif N
8 1 4 -0.189705 -3.309096324 5.940590463 7.414206329 # calf20_ddec_super.cif N
9 1 4 -0.19279 6.403701526 8.2411017 3.506373637 # calf20_ddec_super.cif N
10 1 4 -0.192839 -1.631610327 1.45239628 5.025032275 # calf20_ddec_super.cif N
11 1 4 -0.192842 0.4392457663 3.394352278 0.7593269757 # calf20_ddec_super.cif N
12 1 4 -0.19284 4.332848227 6.299146241 7.77207925 # calf20_ddec_super.cif N
13 1 4 -0.317825 7.090071028 6.860405446 1.915598076 # calf20_ddec_super.cif N
14 1 4 -0.317856 -2.31797928 2.833095034 6.615810637 # calf20_ddec_super.cif N
15 1 4 -0.317783 -0.2471248405 2.013656528 2.350105369 # calf20_ddec_super.cif N
16 1 4 -0.317845 5.019216451 7.679845361 6.18130032 # calf20_ddec_super.cif N
17 1 3 -0.498914 1.102240322 0.7497797058 5.223904067 # calf20_ddec_super.cif O
18 1 3 -0.498913 3.669852858 8.943720654 3.307507881 # calf20_ddec_super.cif O
19 1 3 -0.498917 1.598995014 5.596527308 7.573212158 # calf20_ddec_super.cif O
20 1 3 -0.498914 3.173094154 4.096979264 0.9581894332 # calf20_ddec_super.cif O
21 1 3 -0.504972 3.237959862 0.3083222689 5.77558344 # calf20_ddec_super.cif O
22 1 3 -0.504996 1.534136382 9.385174018 2.755820029 # calf20_ddec_super.cif O
23 1 3 -0.504964 -0.536713535 5.155074705 7.021529959 # calf20_ddec_super.cif O
24 1 3 -0.504947 5.308807639 4.538426897 1.509877429 # calf20_ddec_super.cif O
25 1 2 0.1511 -0.8538509276 7.758856516 2.190306286 # calf20_ddec_super.cif C
26 1 2 0.151084 5.625939253 1.934642661 6.341103173 # calf20_ddec_super.cif C
27 1 2 0.151075 7.696795245 2.912105986 2.075398808 # calf20_ddec_super.cif C
28 1 2 0.15109 -2.924704884 6.781392844 6.456009795 # calf20_ddec_super.cif C
29 1 2 0.163631 6.08238204 7.194843639 2.754604803 # calf20_ddec_super.cif C
30 1 2 0.163688 -1.310291121 2.498656662 5.77680275 # calf20_ddec_super.cif C
31 1 2 0.163655 0.7605625872 2.348093248 1.511099236 # calf20_ddec_super.cif C
32 1 2 0.163692 4.011528889 7.345406181 7.02030866 # calf20_ddec_super.cif C
33 1 2 0.467519 2.266988951 0.3040470826 4.974402156 # calf20_ddec_super.cif C
34 1 2 0.467537 2.505108571 9.389450793 3.557007514 # calf20_ddec_super.cif C
35 1 2 0.467506 0.434258187 5.150798943 7.822713437 # calf20_ddec_super.cif C
36 1 2 0.46749 4.337845587 4.542704938 0.7086959802 # calf20_ddec_super.cif C
37 1 1 0.115606 0.1189595725 7.814779699 1.715961306 # calf20_ddec_super.cif H
38 1 1 0.115616 4.653130322 1.878720371 6.815447083 # calf20_ddec_super.cif H
39 1 1 0.115601 6.723984718 2.96802945 2.549742976 # calf20_ddec_super.cif H
40 1 1 0.11561 -1.951895546 6.725469566 5.981665648 # calf20_ddec_super.cif H
41 1 1 0.117813 5.127684159 6.686648241 2.808846504 # calf20_ddec_super.cif H
42 1 1 0.117793 -0.3555957625 3.006849557 5.722560742 # calf20_ddec_super.cif H
43 1 1 0.117796 1.715259462 1.83989971 1.456857357 # calf20_ddec_super.cif H
44 1 1 0.117789 3.056830769 7.853600363 7.074550945 # calf20_ddec_super.cif H
45 1 5 0.688558 -4.401234317 0.5471969582 12.27155513 # calf20_ddec_super.cif Zn
46 1 5 0.688576 0.8899032087 9.146301706 13.32266837 # calf20_ddec_super.cif Zn
47 1 5 0.688578 2.960761836 5.393945751 9.056965396 # calf20_ddec_super.cif Zn
48 1 5 0.688597 -6.472085372 4.299550257 16.53725694 # calf20_ddec_super.cif Zn
49 1 4 -0.189726 -5.37995264 8.599657007 11.67990861 # calf20_ddec_super.cif N
50 1 4 -0.189706 1.868626148 1.09384201 13.91431334 # calf20_ddec_super.cif N
51 1 4 -0.189705 3.939480626 3.752906141 9.648608938 # calf20_ddec_super.cif N
52 1 4 -0.189705 -7.450804627 5.940590463 15.94561389 # calf20_ddec_super.cif N
53 1 4 -0.19279 2.261993223 8.2411017 12.03778119 # calf20_ddec_super.cif N
54 1 4 -0.192839 -5.77331863 1.45239628 13.55643983 # calf20_ddec_super.cif N
55 1 4 -0.192842 -3.702462537 3.394352278 9.290734532 # calf20_ddec_super.cif N
56 1 4 -0.19284 0.1911399238 6.299146241 16.30348681 # calf20_ddec_super.cif N
57 1 4 -0.317825 2.948362725 6.860405446 10.44700563 # calf20_ddec_super.cif N
58 1 4 -0.317856 -6.459687583 2.833095034 15.14721819 # calf20_ddec_super.cif N
59 1 4 -0.317783 -4.388833144 2.013656528 10.88151293 # calf20_ddec_super.cif N
60 1 4 -0.317845 0.8775081476 7.679845361 14.71270788 # calf20_ddec_super.cif N
61 1 3 -0.498914 -3.039467981 0.7497797058 13.75531162 # calf20_ddec_super.cif O
62 1 3 -0.498913 -0.4718554452 8.943720654 11.83891544 # calf20_ddec_super.cif O
63 1 3 -0.498917 -2.542713289 5.596527308 16.10461971 # calf20_ddec_super.cif O
64 1 3 -0.498914 -0.9686141491 4.096979264 9.48959699 # calf20_ddec_super.cif O
65 1 3 -0.504972 -0.9037484411 0.3083222689 14.306991 # calf20_ddec_super.cif O
66 1 3 -0.504996 -2.607571921 9.385174018 11.28722759 # calf20_ddec_super.cif O
67 1 3 -0.504964 -4.678421838 5.155074705 15.55293752 # calf20_ddec_super.cif O
68 1 3 -0.504947 1.167099336 4.538426897 10.04128499 # calf20_ddec_super.cif O
69 1 2 0.1511 -4.995559231 7.758856516 10.72171384 # calf20_ddec_super.cif C
70 1 2 0.151084 1.48423095 1.934642661 14.87251073 # calf20_ddec_super.cif C
71 1 2 0.151075 3.555086942 2.912105986 10.60680636 # calf20_ddec_super.cif C
72 1 2 0.15109 -7.066413187 6.781392844 14.98741735 # calf20_ddec_super.cif C
73 1 2 0.163631 1.940673737 7.194843639 11.28601236 # calf20_ddec_super.cif C
74 1 2 0.163688 -5.451999424 2.498656662 14.30821031 # calf20_ddec_super.cif C
75 1 2 0.163655 -3.381145716 2.348093248 10.04250679 # calf20_ddec_super.cif C
76 1 2 0.163692 -0.1301794143 7.345406181 15.55171622 # calf20_ddec_super.cif C
77 1 2 0.467519 -1.874719352 0.3040470826 13.50580971 # calf20_ddec_super.cif C
78 1 2 0.467537 -1.636599732 9.389450793 12.08841507 # calf20_ddec_super.cif C
79 1 2 0.467506 -3.707450116 5.150798943 16.35412099 # calf20_ddec_super.cif C
80 1 2 0.46749 0.1961372845 4.542704938 9.240103537 # calf20_ddec_super.cif C
81 1 1 0.115606 -4.022748731 7.814779699 10.24736886 # calf20_ddec_super.cif H
82 1 1 0.115616 0.5114220191 1.878720371 15.34685464 # calf20_ddec_super.cif H
83 1 1 0.115601 2.582276415 2.96802945 11.08115053 # calf20_ddec_super.cif H
84 1 1 0.11561 -6.093603849 6.725469566 14.5130732 # calf20_ddec_super.cif H
85 1 1 0.117813 0.9859758556 6.686648241 11.34025406 # calf20_ddec_super.cif H
86 1 1 0.117793 -4.497304066 3.006849557 14.2539683 # calf20_ddec_super.cif H
87 1 1 0.117796 -2.426448841 1.83989971 9.988264914 # calf20_ddec_super.cif H
88 1 1 0.117789 -1.084877534 7.853600363 15.6059585 # calf20_ddec_super.cif H
89 1 5 0.688558 -8.54294262 0.5471969582 20.80296268 # calf20_ddec_super.cif Zn
90 1 5 0.688576 -3.251805094 9.146301706 21.85407592 # calf20_ddec_super.cif Zn
91 1 5 0.688578 -1.180946467 5.393945751 17.58837295 # calf20_ddec_super.cif Zn
92 1 5 0.688597 -10.61379368 4.299550257 25.06866449 # calf20_ddec_super.cif Zn
93 1 4 -0.189726 -9.521660943 8.599657007 20.21131617 # calf20_ddec_super.cif N
94 1 4 -0.189706 -2.273082155 1.09384201 22.44572089 # calf20_ddec_super.cif N
95 1 4 -0.189705 -0.2022276771 3.752906141 18.1800165 # calf20_ddec_super.cif N
96 1 4 -0.189705 -11.59251293 5.940590463 24.47702144 # calf20_ddec_super.cif N
97 1 4 -0.19279 -1.87971508 8.2411017 20.56918875 # calf20_ddec_super.cif N
98 1 4 -0.192839 -9.915026933 1.45239628 22.08784739 # calf20_ddec_super.cif N
99 1 4 -0.192842 -7.84417084 3.394352278 17.82214209 # calf20_ddec_super.cif N
100 1 4 -0.19284 -3.950568379 6.299146241 24.83489436 # calf20_ddec_super.cif N
101 1 4 -0.317825 -1.193345578 6.860405446 18.97841319 # calf20_ddec_super.cif N
102 1 4 -0.317856 -10.60139589 2.833095034 23.67862575 # calf20_ddec_super.cif N
103 1 4 -0.317783 -8.530541447 2.013656528 19.41292048 # calf20_ddec_super.cif N
104 1 4 -0.317845 -3.264200155 7.679845361 23.24411543 # calf20_ddec_super.cif N
105 1 3 -0.498914 -7.181176284 0.7497797058 22.28671918 # calf20_ddec_super.cif O
106 1 3 -0.498913 -4.613563748 8.943720654 20.37032299 # calf20_ddec_super.cif O
107 1 3 -0.498917 -6.684421592 5.596527308 24.63602727 # calf20_ddec_super.cif O
108 1 3 -0.498914 -5.110322452 4.096979264 18.02100455 # calf20_ddec_super.cif O
109 1 3 -0.504972 -5.045456744 0.3083222689 22.83839855 # calf20_ddec_super.cif O
110 1 3 -0.504996 -6.749280224 9.385174018 19.81863514 # calf20_ddec_super.cif O
111 1 3 -0.504964 -8.820130141 5.155074705 24.08434507 # calf20_ddec_super.cif O
112 1 3 -0.504947 -2.974608967 4.538426897 18.57269254 # calf20_ddec_super.cif O
113 1 2 0.1511 -9.137267534 7.758856516 19.2531214 # calf20_ddec_super.cif C
114 1 2 0.151084 -2.657477353 1.934642661 23.40391829 # calf20_ddec_super.cif C
115 1 2 0.151075 -0.5866213614 2.912105986 19.13821392 # calf20_ddec_super.cif C
116 1 2 0.15109 -11.20812149 6.781392844 23.51882491 # calf20_ddec_super.cif C
117 1 2 0.163631 -2.201034566 7.194843639 19.81741992 # calf20_ddec_super.cif C
118 1 2 0.163688 -9.593707727 2.498656662 22.83961786 # calf20_ddec_super.cif C
119 1 2 0.163655 -7.522854019 2.348093248 18.57391435 # calf20_ddec_super.cif C
120 1 2 0.163692 -4.271887717 7.345406181 24.08312377 # calf20_ddec_super.cif C
121 1 2 0.467519 -6.016427655 0.3040470826 22.03721727 # calf20_ddec_super.cif C
122 1 2 0.467537 -5.778308035 9.389450793 20.61982263 # calf20_ddec_super.cif C
123 1 2 0.467506 -7.849158419 5.150798943 24.88552855 # calf20_ddec_super.cif C
124 1 2 0.46749 -3.945571019 4.542704938 17.77151109 # calf20_ddec_super.cif C
125 1 1 0.115606 -8.164457034 7.814779699 18.77877642 # calf20_ddec_super.cif H
126 1 1 0.115616 -3.630286284 1.878720371 23.8782622 # calf20_ddec_super.cif H
127 1 1 0.115601 -1.559431888 2.96802945 19.61255809 # calf20_ddec_super.cif H
128 1 1 0.11561 -10.23531215 6.725469566 23.04448076 # calf20_ddec_super.cif H
129 1 1 0.117813 -3.155732447 6.686648241 19.87166162 # calf20_ddec_super.cif H
130 1 1 0.117793 -8.639012369 3.006849557 22.78537586 # calf20_ddec_super.cif H
131 1 1 0.117796 -6.568157144 1.83989971 18.51967247 # calf20_ddec_super.cif H
132 1 1 0.117789 -5.226585837 7.853600363 24.13736606 # calf20_ddec_super.cif H
133 1 5 0.688558 -0.2595260137 10.24069652 3.740147571 # calf20_ddec_super.cif Zn
134 1 5 0.688576 5.031611512 18.83980127 4.791260809 # calf20_ddec_super.cif Zn
135 1 5 0.688578 7.102470139 15.08744532 0.5255578396 # calf20_ddec_super.cif Zn
136 1 5 0.688597 -2.330377069 13.99304982 8.00584938 # calf20_ddec_super.cif Zn
137 1 4 -0.189726 -1.238244337 18.29315657 3.148501056 # calf20_ddec_super.cif N
138 1 4 -0.189706 6.010334451 10.78734158 5.382905782 # calf20_ddec_super.cif N
139 1 4 -0.189705 8.081188929 13.44640571 1.117201382 # calf20_ddec_super.cif N
140 1 4 -0.189705 -3.309096324 15.63409003 7.414206329 # calf20_ddec_super.cif N
141 1 4 -0.19279 6.403701526 17.93460127 3.506373637 # calf20_ddec_super.cif N
142 1 4 -0.192839 -1.631610327 11.14589584 5.025032275 # calf20_ddec_super.cif N
143 1 4 -0.192842 0.4392457663 13.08785184 0.7593269757 # calf20_ddec_super.cif N
144 1 4 -0.19284 4.332848227 15.99264581 7.77207925 # calf20_ddec_super.cif N
145 1 4 -0.317825 7.090071028 16.55390501 1.915598076 # calf20_ddec_super.cif N
146 1 4 -0.317856 -2.31797928 12.5265946 6.615810637 # calf20_ddec_super.cif N
147 1 4 -0.317783 -0.2471248405 11.70715609 2.350105369 # calf20_ddec_super.cif N
148 1 4 -0.317845 5.019216451 17.37334493 6.18130032 # calf20_ddec_super.cif N
149 1 3 -0.498914 1.102240322 10.44327927 5.223904067 # calf20_ddec_super.cif O
150 1 3 -0.498913 3.669852858 18.63722022 3.307507881 # calf20_ddec_super.cif O
151 1 3 -0.498917 1.598995014 15.29002687 7.573212158 # calf20_ddec_super.cif O
152 1 3 -0.498914 3.173094154 13.79047883 0.9581894332 # calf20_ddec_super.cif O
153 1 3 -0.504972 3.237959862 10.00182183 5.77558344 # calf20_ddec_super.cif O
154 1 3 -0.504996 1.534136382 19.07867358 2.755820029 # calf20_ddec_super.cif O
155 1 3 -0.504964 -0.536713535 14.84857427 7.021529959 # calf20_ddec_super.cif O
156 1 3 -0.504947 5.308807639 14.23192646 1.509877429 # calf20_ddec_super.cif O
157 1 2 0.1511 -0.8538509276 17.45235608 2.190306286 # calf20_ddec_super.cif C
158 1 2 0.151084 5.625939253 11.62814223 6.341103173 # calf20_ddec_super.cif C
159 1 2 0.151075 7.696795245 12.60560555 2.075398808 # calf20_ddec_super.cif C
160 1 2 0.15109 -2.924704884 16.47489241 6.456009795 # calf20_ddec_super.cif C
161 1 2 0.163631 6.08238204 16.8883432 2.754604803 # calf20_ddec_super.cif C
162 1 2 0.163688 -1.310291121 12.19215623 5.77680275 # calf20_ddec_super.cif C
163 1 2 0.163655 0.7605625872 12.04159281 1.511099236 # calf20_ddec_super.cif C
164 1 2 0.163692 4.011528889 17.03890575 7.02030866 # calf20_ddec_super.cif C
165 1 2 0.467519 2.266988951 9.997546648 4.974402156 # calf20_ddec_super.cif C
166 1 2 0.467537 2.505108571 19.08295036 3.557007514 # calf20_ddec_super.cif C
167 1 2 0.467506 0.434258187 14.84429851 7.822713437 # calf20_ddec_super.cif C
168 1 2 0.46749 4.337845587 14.2362045 0.7086959802 # calf20_ddec_super.cif C
169 1 1 0.115606 0.1189595725 17.50827926 1.715961306 # calf20_ddec_super.cif H
170 1 1 0.115616 4.653130322 11.57221994 6.815447083 # calf20_ddec_super.cif H
171 1 1 0.115601 6.723984718 12.66152902 2.549742976 # calf20_ddec_super.cif H
172 1 1 0.11561 -1.951895546 16.41896913 5.981665648 # calf20_ddec_super.cif H
173 1 1 0.117813 5.127684159 16.38014781 2.808846504 # calf20_ddec_super.cif H
174 1 1 0.117793 -0.3555957625 12.70034912 5.722560742 # calf20_ddec_super.cif H
175 1 1 0.117796 1.715259462 11.53339928 1.456857357 # calf20_ddec_super.cif H
176 1 1 0.117789 3.056830769 17.54709993 7.074550945 # calf20_ddec_super.cif H
177 1 5 0.688558 -4.401234317 10.24069652 12.27155513 # calf20_ddec_super.cif Zn
178 1 5 0.688576 0.8899032087 18.83980127 13.32266837 # calf20_ddec_super.cif Zn
179 1 5 0.688578 2.960761836 15.08744532 9.056965396 # calf20_ddec_super.cif Zn
180 1 5 0.688597 -6.472085372 13.99304982 16.53725694 # calf20_ddec_super.cif Zn
181 1 4 -0.189726 -5.37995264 18.29315657 11.67990861 # calf20_ddec_super.cif N
182 1 4 -0.189706 1.868626148 10.78734158 13.91431334 # calf20_ddec_super.cif N
183 1 4 -0.189705 3.939480626 13.44640571 9.648608938 # calf20_ddec_super.cif N
184 1 4 -0.189705 -7.450804627 15.63409003 15.94561389 # calf20_ddec_super.cif N
185 1 4 -0.19279 2.261993223 17.93460127 12.03778119 # calf20_ddec_super.cif N
186 1 4 -0.192839 -5.77331863 11.14589584 13.55643983 # calf20_ddec_super.cif N
187 1 4 -0.192842 -3.702462537 13.08785184 9.290734532 # calf20_ddec_super.cif N
188 1 4 -0.19284 0.1911399238 15.99264581 16.30348681 # calf20_ddec_super.cif N
189 1 4 -0.317825 2.948362725 16.55390501 10.44700563 # calf20_ddec_super.cif N
190 1 4 -0.317856 -6.459687583 12.5265946 15.14721819 # calf20_ddec_super.cif N
191 1 4 -0.317783 -4.388833144 11.70715609 10.88151293 # calf20_ddec_super.cif N
192 1 4 -0.317845 0.8775081476 17.37334493 14.71270788 # calf20_ddec_super.cif N
193 1 3 -0.498914 -3.039467981 10.44327927 13.75531162 # calf20_ddec_super.cif O
194 1 3 -0.498913 -0.4718554452 18.63722022 11.83891544 # calf20_ddec_super.cif O
195 1 3 -0.498917 -2.542713289 15.29002687 16.10461971 # calf20_ddec_super.cif O
196 1 3 -0.498914 -0.9686141491 13.79047883 9.48959699 # calf20_ddec_super.cif O
197 1 3 -0.504972 -0.9037484411 10.00182183 14.306991 # calf20_ddec_super.cif O
198 1 3 -0.504996 -2.607571921 19.07867358 11.28722759 # calf20_ddec_super.cif O
199 1 3 -0.504964 -4.678421838 14.84857427 15.55293752 # calf20_ddec_super.cif O
200 1 3 -0.504947 1.167099336 14.23192646 10.04128499 # calf20_ddec_super.cif O
201 1 2 0.1511 -4.995559231 17.45235608 10.72171384 # calf20_ddec_super.cif C
202 1 2 0.151084 1.48423095 11.62814223 14.87251073 # calf20_ddec_super.cif C
203 1 2 0.151075 3.555086942 12.60560555 10.60680636 # calf20_ddec_super.cif C
204 1 2 0.15109 -7.066413187 16.47489241 14.98741735 # calf20_ddec_super.cif C
205 1 2 0.163631 1.940673737 16.8883432 11.28601236 # calf20_ddec_super.cif C
206 1 2 0.163688 -5.451999424 12.19215623 14.30821031 # calf20_ddec_super.cif C
207 1 2 0.163655 -3.381145716 12.04159281 10.04250679 # calf20_ddec_super.cif C
208 1 2 0.163692 -0.1301794143 17.03890575 15.55171622 # calf20_ddec_super.cif C
209 1 2 0.467519 -1.874719352 9.997546648 13.50580971 # calf20_ddec_super.cif C
210 1 2 0.467537 -1.636599732 19.08295036 12.08841507 # calf20_ddec_super.cif C
211 1 2 0.467506 -3.707450116 14.84429851 16.35412099 # calf20_ddec_super.cif C
212 1 2 0.46749 0.1961372845 14.2362045 9.240103537 # calf20_ddec_super.cif C
213 1 1 0.115606 -4.022748731 17.50827926 10.24736886 # calf20_ddec_super.cif H
214 1 1 0.115616 0.5114220191 11.57221994 15.34685464 # calf20_ddec_super.cif H
215 1 1 0.115601 2.582276415 12.66152902 11.08115053 # calf20_ddec_super.cif H
216 1 1 0.11561 -6.093603849 16.41896913 14.5130732 # calf20_ddec_super.cif H
217 1 1 0.117813 0.9859758556 16.38014781 11.34025406 # calf20_ddec_super.cif H
218 1 1 0.117793 -4.497304066 12.70034912 14.2539683 # calf20_ddec_super.cif H
219 1 1 0.117796 -2.426448841 11.53339928 9.988264914 # calf20_ddec_super.cif H
220 1 1 0.117789 -1.084877534 17.54709993 15.6059585 # calf20_ddec_super.cif H
221 1 5 0.688558 -8.54294262 10.24069652 20.80296268 # calf20_ddec_super.cif Zn
222 1 5 0.688576 -3.251805094 18.83980127 21.85407592 # calf20_ddec_super.cif Zn
223 1 5 0.688578 -1.180946467 15.08744532 17.58837295 # calf20_ddec_super.cif Zn
224 1 5 0.688597 -10.61379368 13.99304982 25.06866449 # calf20_ddec_super.cif Zn
225 1 4 -0.189726 -9.521660943 18.29315657 20.21131617 # calf20_ddec_super.cif N
226 1 4 -0.189706 -2.273082155 10.78734158 22.44572089 # calf20_ddec_super.cif N
227 1 4 -0.189705 -0.2022276771 13.44640571 18.1800165 # calf20_ddec_super.cif N
228 1 4 -0.189705 -11.59251293 15.63409003 24.47702144 # calf20_ddec_super.cif N
229 1 4 -0.19279 -1.87971508 17.93460127 20.56918875 # calf20_ddec_super.cif N
230 1 4 -0.192839 -9.915026933 11.14589584 22.08784739 # calf20_ddec_super.cif N
231 1 4 -0.192842 -7.84417084 13.08785184 17.82214209 # calf20_ddec_super.cif N
232 1 4 -0.19284 -3.950568379 15.99264581 24.83489436 # calf20_ddec_super.cif N
233 1 4 -0.317825 -1.193345578 16.55390501 18.97841319 # calf20_ddec_super.cif N
234 1 4 -0.317856 -10.60139589 12.5265946 23.67862575 # calf20_ddec_super.cif N
235 1 4 -0.317783 -8.530541447 11.70715609 19.41292048 # calf20_ddec_super.cif N
236 1 4 -0.317845 -3.264200155 17.37334493 23.24411543 # calf20_ddec_super.cif N
237 1 3 -0.498914 -7.181176284 10.44327927 22.28671918 # calf20_ddec_super.cif O
238 1 3 -0.498913 -4.613563748 18.63722022 20.37032299 # calf20_ddec_super.cif O
239 1 3 -0.498917 -6.684421592 15.29002687 24.63602727 # calf20_ddec_super.cif O
240 1 3 -0.498914 -5.110322452 13.79047883 18.02100455 # calf20_ddec_super.cif O
241 1 3 -0.504972 -5.045456744 10.00182183 22.83839855 # calf20_ddec_super.cif O
242 1 3 -0.504996 -6.749280224 19.07867358 19.81863514 # calf20_ddec_super.cif O
243 1 3 -0.504964 -8.820130141 14.84857427 24.08434507 # calf20_ddec_super.cif O
244 1 3 -0.504947 -2.974608967 14.23192646 18.57269254 # calf20_ddec_super.cif O
245 1 2 0.1511 -9.137267534 17.45235608 19.2531214 # calf20_ddec_super.cif C
246 1 2 0.151084 -2.657477353 11.62814223 23.40391829 # calf20_ddec_super.cif C
247 1 2 0.151075 -0.5866213614 12.60560555 19.13821392 # calf20_ddec_super.cif C
248 1 2 0.15109 -11.20812149 16.47489241 23.51882491 # calf20_ddec_super.cif C
249 1 2 0.163631 -2.201034566 16.8883432 19.81741992 # calf20_ddec_super.cif C
250 1 2 0.163688 -9.593707727 12.19215623 22.83961786 # calf20_ddec_super.cif C
251 1 2 0.163655 -7.522854019 12.04159281 18.57391435 # calf20_ddec_super.cif C
252 1 2 0.163692 -4.271887717 17.03890575 24.08312377 # calf20_ddec_super.cif C
253 1 2 0.467519 -6.016427655 9.997546648 22.03721727 # calf20_ddec_super.cif C
254 1 2 0.467537 -5.778308035 19.08295036 20.61982263 # calf20_ddec_super.cif C
255 1 2 0.467506 -7.849158419 14.84429851 24.88552855 # calf20_ddec_super.cif C
256 1 2 0.46749 -3.945571019 14.2362045 17.77151109 # calf20_ddec_super.cif C
257 1 1 0.115606 -8.164457034 17.50827926 18.77877642 # calf20_ddec_super.cif H
258 1 1 0.115616 -3.630286284 11.57221994 23.8782622 # calf20_ddec_super.cif H
259 1 1 0.115601 -1.559431888 12.66152902 19.61255809 # calf20_ddec_super.cif H
260 1 1 0.11561 -10.23531215 16.41896913 23.04448076 # calf20_ddec_super.cif H
261 1 1 0.117813 -3.155732447 16.38014781 19.87166162 # calf20_ddec_super.cif H
262 1 1 0.117793 -8.639012369 12.70034912 22.78537586 # calf20_ddec_super.cif H
263 1 1 0.117796 -6.568157144 11.53339928 18.51967247 # calf20_ddec_super.cif H
264 1 1 0.117789 -5.226585837 17.54709993 24.13736606 # calf20_ddec_super.cif H
265 1 5 0.688558 -0.2595260137 19.93419609 3.740147571 # calf20_ddec_super.cif Zn
266 1 5 0.688576 5.031611512 28.53330084 4.791260809 # calf20_ddec_super.cif Zn
267 1 5 0.688578 7.102470139 24.78094488 0.5255578396 # calf20_ddec_super.cif Zn
268 1 5 0.688597 -2.330377069 23.68654939 8.00584938 # calf20_ddec_super.cif Zn
269 1 4 -0.189726 -1.238244337 27.98665614 3.148501056 # calf20_ddec_super.cif N
270 1 4 -0.189706 6.010334451 20.48084114 5.382905782 # calf20_ddec_super.cif N
271 1 4 -0.189705 8.081188929 23.13990527 1.117201382 # calf20_ddec_super.cif N
272 1 4 -0.189705 -3.309096324 25.32758959 7.414206329 # calf20_ddec_super.cif N
273 1 4 -0.19279 6.403701526 27.62810083 3.506373637 # calf20_ddec_super.cif N
274 1 4 -0.192839 -1.631610327 20.83939541 5.025032275 # calf20_ddec_super.cif N
275 1 4 -0.192842 0.4392457663 22.78135141 0.7593269757 # calf20_ddec_super.cif N
276 1 4 -0.19284 4.332848227 25.68614537 7.77207925 # calf20_ddec_super.cif N
277 1 4 -0.317825 7.090071028 26.24740458 1.915598076 # calf20_ddec_super.cif N
278 1 4 -0.317856 -2.31797928 22.22009416 6.615810637 # calf20_ddec_super.cif N
279 1 4 -0.317783 -0.2471248405 21.40065566 2.350105369 # calf20_ddec_super.cif N
280 1 4 -0.317845 5.019216451 27.06684449 6.18130032 # calf20_ddec_super.cif N
281 1 3 -0.498914 1.102240322 20.13677884 5.223904067 # calf20_ddec_super.cif O
282 1 3 -0.498913 3.669852858 28.33071978 3.307507881 # calf20_ddec_super.cif O
283 1 3 -0.498917 1.598995014 24.98352644 7.573212158 # calf20_ddec_super.cif O
284 1 3 -0.498914 3.173094154 23.48397839 0.9581894332 # calf20_ddec_super.cif O
285 1 3 -0.504972 3.237959862 19.6953214 5.77558344 # calf20_ddec_super.cif O
286 1 3 -0.504996 1.534136382 28.77217315 2.755820029 # calf20_ddec_super.cif O
287 1 3 -0.504964 -0.536713535 24.54207383 7.021529959 # calf20_ddec_super.cif O
288 1 3 -0.504947 5.308807639 23.92542603 1.509877429 # calf20_ddec_super.cif O
289 1 2 0.1511 -0.8538509276 27.14585565 2.190306286 # calf20_ddec_super.cif C
290 1 2 0.151084 5.625939253 21.32164179 6.341103173 # calf20_ddec_super.cif C
291 1 2 0.151075 7.696795245 22.29910512 2.075398808 # calf20_ddec_super.cif C
292 1 2 0.15109 -2.924704884 26.16839197 6.456009795 # calf20_ddec_super.cif C
293 1 2 0.163631 6.08238204 26.58184277 2.754604803 # calf20_ddec_super.cif C
294 1 2 0.163688 -1.310291121 21.88565579 5.77680275 # calf20_ddec_super.cif C
295 1 2 0.163655 0.7605625872 21.73509238 1.511099236 # calf20_ddec_super.cif C
296 1 2 0.163692 4.011528889 26.73240531 7.02030866 # calf20_ddec_super.cif C
297 1 2 0.467519 2.266988951 19.69104621 4.974402156 # calf20_ddec_super.cif C
298 1 2 0.467537 2.505108571 28.77644992 3.557007514 # calf20_ddec_super.cif C
299 1 2 0.467506 0.434258187 24.53779807 7.822713437 # calf20_ddec_super.cif C
300 1 2 0.46749 4.337845587 23.92970407 0.7086959802 # calf20_ddec_super.cif C
301 1 1 0.115606 0.1189595725 27.20177883 1.715961306 # calf20_ddec_super.cif H
302 1 1 0.115616 4.653130322 21.2657195 6.815447083 # calf20_ddec_super.cif H
303 1 1 0.115601 6.723984718 22.35502858 2.549742976 # calf20_ddec_super.cif H
304 1 1 0.11561 -1.951895546 26.1124687 5.981665648 # calf20_ddec_super.cif H
305 1 1 0.117813 5.127684159 26.07364737 2.808846504 # calf20_ddec_super.cif H
306 1 1 0.117793 -0.3555957625 22.39384869 5.722560742 # calf20_ddec_super.cif H
307 1 1 0.117796 1.715259462 21.22689884 1.456857357 # calf20_ddec_super.cif H
308 1 1 0.117789 3.056830769 27.24059949 7.074550945 # calf20_ddec_super.cif H
309 1 5 0.688558 -4.401234317 19.93419609 12.27155513 # calf20_ddec_super.cif Zn
310 1 5 0.688576 0.8899032087 28.53330084 13.32266837 # calf20_ddec_super.cif Zn
311 1 5 0.688578 2.960761836 24.78094488 9.056965396 # calf20_ddec_super.cif Zn
312 1 5 0.688597 -6.472085372 23.68654939 16.53725694 # calf20_ddec_super.cif Zn
313 1 4 -0.189726 -5.37995264 27.98665614 11.67990861 # calf20_ddec_super.cif N
314 1 4 -0.189706 1.868626148 20.48084114 13.91431334 # calf20_ddec_super.cif N
315 1 4 -0.189705 3.939480626 23.13990527 9.648608938 # calf20_ddec_super.cif N
316 1 4 -0.189705 -7.450804627 25.32758959 15.94561389 # calf20_ddec_super.cif N
317 1 4 -0.19279 2.261993223 27.62810083 12.03778119 # calf20_ddec_super.cif N
318 1 4 -0.192839 -5.77331863 20.83939541 13.55643983 # calf20_ddec_super.cif N
319 1 4 -0.192842 -3.702462537 22.78135141 9.290734532 # calf20_ddec_super.cif N
320 1 4 -0.19284 0.1911399238 25.68614537 16.30348681 # calf20_ddec_super.cif N
321 1 4 -0.317825 2.948362725 26.24740458 10.44700563 # calf20_ddec_super.cif N
322 1 4 -0.317856 -6.459687583 22.22009416 15.14721819 # calf20_ddec_super.cif N
323 1 4 -0.317783 -4.388833144 21.40065566 10.88151293 # calf20_ddec_super.cif N
324 1 4 -0.317845 0.8775081476 27.06684449 14.71270788 # calf20_ddec_super.cif N
325 1 3 -0.498914 -3.039467981 20.13677884 13.75531162 # calf20_ddec_super.cif O
326 1 3 -0.498913 -0.4718554452 28.33071978 11.83891544 # calf20_ddec_super.cif O
327 1 3 -0.498917 -2.542713289 24.98352644 16.10461971 # calf20_ddec_super.cif O
328 1 3 -0.498914 -0.9686141491 23.48397839 9.48959699 # calf20_ddec_super.cif O
329 1 3 -0.504972 -0.9037484411 19.6953214 14.306991 # calf20_ddec_super.cif O
330 1 3 -0.504996 -2.607571921 28.77217315 11.28722759 # calf20_ddec_super.cif O
331 1 3 -0.504964 -4.678421838 24.54207383 15.55293752 # calf20_ddec_super.cif O
332 1 3 -0.504947 1.167099336 23.92542603 10.04128499 # calf20_ddec_super.cif O
333 1 2 0.1511 -4.995559231 27.14585565 10.72171384 # calf20_ddec_super.cif C
334 1 2 0.151084 1.48423095 21.32164179 14.87251073 # calf20_ddec_super.cif C
335 1 2 0.151075 3.555086942 22.29910512 10.60680636 # calf20_ddec_super.cif C
336 1 2 0.15109 -7.066413187 26.16839197 14.98741735 # calf20_ddec_super.cif C
337 1 2 0.163631 1.940673737 26.58184277 11.28601236 # calf20_ddec_super.cif C
338 1 2 0.163688 -5.451999424 21.88565579 14.30821031 # calf20_ddec_super.cif C
339 1 2 0.163655 -3.381145716 21.73509238 10.04250679 # calf20_ddec_super.cif C
340 1 2 0.163692 -0.1301794143 26.73240531 15.55171622 # calf20_ddec_super.cif C
341 1 2 0.467519 -1.874719352 19.69104621 13.50580971 # calf20_ddec_super.cif C
342 1 2 0.467537 -1.636599732 28.77644992 12.08841507 # calf20_ddec_super.cif C
343 1 2 0.467506 -3.707450116 24.53779807 16.35412099 # calf20_ddec_super.cif C
344 1 2 0.46749 0.1961372845 23.92970407 9.240103537 # calf20_ddec_super.cif C
345 1 1 0.115606 -4.022748731 27.20177883 10.24736886 # calf20_ddec_super.cif H
346 1 1 0.115616 0.5114220191 21.2657195 15.34685464 # calf20_ddec_super.cif H
347 1 1 0.115601 2.582276415 22.35502858 11.08115053 # calf20_ddec_super.cif H
348 1 1 0.11561 -6.093603849 26.1124687 14.5130732 # calf20_ddec_super.cif H
349 1 1 0.117813 0.9859758556 26.07364737 11.34025406 # calf20_ddec_super.cif H
350 1 1 0.117793 -4.497304066 22.39384869 14.2539683 # calf20_ddec_super.cif H
351 1 1 0.117796 -2.426448841 21.22689884 9.988264914 # calf20_ddec_super.cif H
352 1 1 0.117789 -1.084877534 27.24059949 15.6059585 # calf20_ddec_super.cif H
353 1 5 0.688558 -8.54294262 19.93419609 20.80296268 # calf20_ddec_super.cif Zn
354 1 5 0.688576 -3.251805094 28.53330084 21.85407592 # calf20_ddec_super.cif Zn
355 1 5 0.688578 -1.180946467 24.78094488 17.58837295 # calf20_ddec_super.cif Zn
356 1 5 0.688597 -10.61379368 23.68654939 25.06866449 # calf20_ddec_super.cif Zn
357 1 4 -0.189726 -9.521660943 27.98665614 20.21131617 # calf20_ddec_super.cif N
358 1 4 -0.189706 -2.273082155 20.48084114 22.44572089 # calf20_ddec_super.cif N
359 1 4 -0.189705 -0.2022276771 23.13990527 18.1800165 # calf20_ddec_super.cif N
360 1 4 -0.189705 -11.59251293 25.32758959 24.47702144 # calf20_ddec_super.cif N
361 1 4 -0.19279 -1.87971508 27.62810083 20.56918875 # calf20_ddec_super.cif N
362 1 4 -0.192839 -9.915026933 20.83939541 22.08784739 # calf20_ddec_super.cif N
363 1 4 -0.192842 -7.84417084 22.78135141 17.82214209 # calf20_ddec_super.cif N
364 1 4 -0.19284 -3.950568379 25.68614537 24.83489436 # calf20_ddec_super.cif N
365 1 4 -0.317825 -1.193345578 26.24740458 18.97841319 # calf20_ddec_super.cif N
366 1 4 -0.317856 -10.60139589 22.22009416 23.67862575 # calf20_ddec_super.cif N
367 1 4 -0.317783 -8.530541447 21.40065566 19.41292048 # calf20_ddec_super.cif N
368 1 4 -0.317845 -3.264200155 27.06684449 23.24411543 # calf20_ddec_super.cif N
369 1 3 -0.498914 -7.181176284 20.13677884 22.28671918 # calf20_ddec_super.cif O
370 1 3 -0.498913 -4.613563748 28.33071978 20.37032299 # calf20_ddec_super.cif O
371 1 3 -0.498917 -6.684421592 24.98352644 24.63602727 # calf20_ddec_super.cif O
372 1 3 -0.498914 -5.110322452 23.48397839 18.02100455 # calf20_ddec_super.cif O
373 1 3 -0.504972 -5.045456744 19.6953214 22.83839855 # calf20_ddec_super.cif O
374 1 3 -0.504996 -6.749280224 28.77217315 19.81863514 # calf20_ddec_super.cif O
375 1 3 -0.504964 -8.820130141 24.54207383 24.08434507 # calf20_ddec_super.cif O
376 1 3 -0.504947 -2.974608967 23.92542603 18.57269254 # calf20_ddec_super.cif O
377 1 2 0.1511 -9.137267534 27.14585565 19.2531214 # calf20_ddec_super.cif C
378 1 2 0.151084 -2.657477353 21.32164179 23.40391829 # calf20_ddec_super.cif C
379 1 2 0.151075 -0.5866213614 22.29910512 19.13821392 # calf20_ddec_super.cif C
380 1 2 0.15109 -11.20812149 26.16839197 23.51882491 # calf20_ddec_super.cif C
381 1 2 0.163631 -2.201034566 26.58184277 19.81741992 # calf20_ddec_super.cif C
382 1 2 0.163688 -9.593707727 21.88565579 22.83961786 # calf20_ddec_super.cif C
383 1 2 0.163655 -7.522854019 21.73509238 18.57391435 # calf20_ddec_super.cif C
384 1 2 0.163692 -4.271887717 26.73240531 24.08312377 # calf20_ddec_super.cif C
385 1 2 0.467519 -6.016427655 19.69104621 22.03721727 # calf20_ddec_super.cif C
386 1 2 0.467537 -5.778308035 28.77644992 20.61982263 # calf20_ddec_super.cif C
387 1 2 0.467506 -7.849158419 24.53779807 24.88552855 # calf20_ddec_super.cif C
388 1 2 0.46749 -3.945571019 23.92970407 17.77151109 # calf20_ddec_super.cif C
389 1 1 0.115606 -8.164457034 27.20177883 18.77877642 # calf20_ddec_super.cif H
390 1 1 0.115616 -3.630286284 21.2657195 23.8782622 # calf20_ddec_super.cif H
391 1 1 0.115601 -1.559431888 22.35502858 19.61255809 # calf20_ddec_super.cif H
392 1 1 0.11561 -10.23531215 26.1124687 23.04448076 # calf20_ddec_super.cif H
393 1 1 0.117813 -3.155732447 26.07364737 19.87166162 # calf20_ddec_super.cif H
394 1 1 0.117793 -8.639012369 22.39384869 22.78537586 # calf20_ddec_super.cif H
395 1 1 0.117796 -6.568157144 21.22689884 18.51967247 # calf20_ddec_super.cif H
396 1 1 0.117789 -5.226585837 27.24059949 24.13736606 # calf20_ddec_super.cif H
397 1 5 0.688558 8.654274226 0.5471969582 3.740147571 # calf20_ddec_super.cif Zn
398 1 5 0.688576 13.94541175 9.146301706 4.791260809 # calf20_ddec_super.cif Zn
399 1 5 0.688578 16.01627038 5.393945751 0.5255578396 # calf20_ddec_super.cif Zn
400 1 5 0.688597 6.583423171 4.299550257 8.00584938 # calf20_ddec_super.cif Zn
401 1 4 -0.189726 7.675555902 8.599657007 3.148501056 # calf20_ddec_super.cif N
402 1 4 -0.189706 14.92413469 1.09384201 5.382905782 # calf20_ddec_super.cif N
403 1 4 -0.189705 16.99498917 3.752906141 1.117201382 # calf20_ddec_super.cif N
404 1 4 -0.189705 5.604703915 5.940590463 7.414206329 # calf20_ddec_super.cif N
405 1 4 -0.19279 15.31750177 8.2411017 3.506373637 # calf20_ddec_super.cif N
406 1 4 -0.192839 7.282189912 1.45239628 5.025032275 # calf20_ddec_super.cif N
407 1 4 -0.192842 9.353046006 3.394352278 0.7593269757 # calf20_ddec_super.cif N
408 1 4 -0.19284 13.24664847 6.299146241 7.77207925 # calf20_ddec_super.cif N
409 1 4 -0.317825 16.00387127 6.860405446 1.915598076 # calf20_ddec_super.cif N
410 1 4 -0.317856 6.59582096 2.833095034 6.615810637 # calf20_ddec_super.cif N
411 1 4 -0.317783 8.666675399 2.013656528 2.350105369 # calf20_ddec_super.cif N
412 1 4 -0.317845 13.93301669 7.679845361 6.18130032 # calf20_ddec_super.cif N
413 1 3 -0.498914 10.01604056 0.7497797058 5.223904067 # calf20_ddec_super.cif O
414 1 3 -0.498913 12.5836531 8.943720654 3.307507881 # calf20_ddec_super.cif O
415 1 3 -0.498917 10.51279525 5.596527308 7.573212158 # calf20_ddec_super.cif O
416 1 3 -0.498914 12.08689439 4.096979264 0.9581894332 # calf20_ddec_super.cif O
417 1 3 -0.504972 12.1517601 0.3083222689 5.77558344 # calf20_ddec_super.cif O
418 1 3 -0.504996 10.44793662 9.385174018 2.755820029 # calf20_ddec_super.cif O
419 1 3 -0.504964 8.377086705 5.155074705 7.021529959 # calf20_ddec_super.cif O
420 1 3 -0.504947 14.22260788 4.538426897 1.509877429 # calf20_ddec_super.cif O
421 1 2 0.1511 8.059949312 7.758856516 2.190306286 # calf20_ddec_super.cif C
422 1 2 0.151084 14.53973949 1.934642661 6.341103173 # calf20_ddec_super.cif C
423 1 2 0.151075 16.61059548 2.912105986 2.075398808 # calf20_ddec_super.cif C
424 1 2 0.15109 5.989095356 6.781392844 6.456009795 # calf20_ddec_super.cif C
425 1 2 0.163631 14.99618228 7.194843639 2.754604803 # calf20_ddec_super.cif C
426 1 2 0.163688 7.603509119 2.498656662 5.77680275 # calf20_ddec_super.cif C
427 1 2 0.163655 9.674362827 2.348093248 1.511099236 # calf20_ddec_super.cif C
428 1 2 0.163692 12.92532913 7.345406181 7.02030866 # calf20_ddec_super.cif C
429 1 2 0.467519 11.18078919 0.3040470826 4.974402156 # calf20_ddec_super.cif C
430 1 2 0.467537 11.41890881 9.389450793 3.557007514 # calf20_ddec_super.cif C
431 1 2 0.467506 9.348058427 5.150798943 7.822713437 # calf20_ddec_super.cif C
432 1 2 0.46749 13.25164583 4.542704938 0.7086959802 # calf20_ddec_super.cif C
433 1 1 0.115606 9.032759812 7.814779699 1.715961306 # calf20_ddec_super.cif H
434 1 1 0.115616 13.56693056 1.878720371 6.815447083 # calf20_ddec_super.cif H
435 1 1 0.115601 15.63778496 2.96802945 2.549742976 # calf20_ddec_super.cif H
436 1 1 0.11561 6.961904694 6.725469566 5.981665648 # calf20_ddec_super.cif H
437 1 1 0.117813 14.0414844 6.686648241 2.808846504 # calf20_ddec_super.cif H
438 1 1 0.117793 8.558204477 3.006849557 5.722560742 # calf20_ddec_super.cif H
439 1 1 0.117796 10.6290597 1.83989971 1.456857357 # calf20_ddec_super.cif H
440 1 1 0.117789 11.97063101 7.853600363 7.074550945 # calf20_ddec_super.cif H
441 1 5 0.688558 4.512565923 0.5471969582 12.27155513 # calf20_ddec_super.cif Zn
442 1 5 0.688576 9.803703448 9.146301706 13.32266837 # calf20_ddec_super.cif Zn
443 1 5 0.688578 11.87456208 5.393945751 9.056965396 # calf20_ddec_super.cif Zn
444 1 5 0.688597 2.441714868 4.299550257 16.53725694 # calf20_ddec_super.cif Zn
445 1 4 -0.189726 3.533847599 8.599657007 11.67990861 # calf20_ddec_super.cif N
446 1 4 -0.189706 10.78242639 1.09384201 13.91431334 # calf20_ddec_super.cif N
447 1 4 -0.189705 12.85328087 3.752906141 9.648608938 # calf20_ddec_super.cif N
448 1 4 -0.189705 1.462995612 5.940590463 15.94561389 # calf20_ddec_super.cif N
449 1 4 -0.19279 11.17579346 8.2411017 12.03778119 # calf20_ddec_super.cif N
450 1 4 -0.192839 3.140481609 1.45239628 13.55643983 # calf20_ddec_super.cif N
451 1 4 -0.192842 5.211337703 3.394352278 9.290734532 # calf20_ddec_super.cif N
452 1 4 -0.19284 9.104940163 6.299146241 16.30348681 # calf20_ddec_super.cif N
453 1 4 -0.317825 11.86216296 6.860405446 10.44700563 # calf20_ddec_super.cif N
454 1 4 -0.317856 2.454112657 2.833095034 15.14721819 # calf20_ddec_super.cif N
455 1 4 -0.317783 4.524967096 2.013656528 10.88151293 # calf20_ddec_super.cif N
456 1 4 -0.317845 9.791308387 7.679845361 14.71270788 # calf20_ddec_super.cif N
457 1 3 -0.498914 5.874332259 0.7497797058 13.75531162 # calf20_ddec_super.cif O
458 1 3 -0.498913 8.441944794 8.943720654 11.83891544 # calf20_ddec_super.cif O
459 1 3 -0.498917 6.371086951 5.596527308 16.10461971 # calf20_ddec_super.cif O
460 1 3 -0.498914 7.945186091 4.096979264 9.48959699 # calf20_ddec_super.cif O
461 1 3 -0.504972 8.010051799 0.3083222689 14.306991 # calf20_ddec_super.cif O
462 1 3 -0.504996 6.306228319 9.385174018 11.28722759 # calf20_ddec_super.cif O
463 1 3 -0.504964 4.235378402 5.155074705 15.55293752 # calf20_ddec_super.cif O
464 1 3 -0.504947 10.08089958 4.538426897 10.04128499 # calf20_ddec_super.cif O
465 1 2 0.1511 3.918241009 7.758856516 10.72171384 # calf20_ddec_super.cif C
466 1 2 0.151084 10.39803119 1.934642661 14.87251073 # calf20_ddec_super.cif C
467 1 2 0.151075 12.46888718 2.912105986 10.60680636 # calf20_ddec_super.cif C
468 1 2 0.15109 1.847387053 6.781392844 14.98741735 # calf20_ddec_super.cif C
469 1 2 0.163631 10.85447398 7.194843639 11.28601236 # calf20_ddec_super.cif C
470 1 2 0.163688 3.461800816 2.498656662 14.30821031 # calf20_ddec_super.cif C
471 1 2 0.163655 5.532654524 2.348093248 10.04250679 # calf20_ddec_super.cif C
472 1 2 0.163692 8.783620825 7.345406181 15.55171622 # calf20_ddec_super.cif C
473 1 2 0.467519 7.039080888 0.3040470826 13.50580971 # calf20_ddec_super.cif C
474 1 2 0.467537 7.277200507 9.389450793 12.08841507 # calf20_ddec_super.cif C
475 1 2 0.467506 5.206350124 5.150798943 16.35412099 # calf20_ddec_super.cif C
476 1 2 0.46749 9.109937524 4.542704938 9.240103537 # calf20_ddec_super.cif C
477 1 1 0.115606 4.891051509 7.814779699 10.24736886 # calf20_ddec_super.cif H
478 1 1 0.115616 9.425222259 1.878720371 15.34685464 # calf20_ddec_super.cif H
479 1 1 0.115601 11.49607665 2.96802945 11.08115053 # calf20_ddec_super.cif H
480 1 1 0.11561 2.820196391 6.725469566 14.5130732 # calf20_ddec_super.cif H
481 1 1 0.117813 9.899776095 6.686648241 11.34025406 # calf20_ddec_super.cif H
482 1 1 0.117793 4.416496174 3.006849557 14.2539683 # calf20_ddec_super.cif H
483 1 1 0.117796 6.487351399 1.83989971 9.988264914 # calf20_ddec_super.cif H
484 1 1 0.117789 7.828922706 7.853600363 15.6059585 # calf20_ddec_super.cif H
485 1 5 0.688558 0.3708576199 0.5471969582 20.80296268 # calf20_ddec_super.cif Zn
486 1 5 0.688576 5.661995145 9.146301706 21.85407592 # calf20_ddec_super.cif Zn
487 1 5 0.688578 7.732853773 5.393945751 17.58837295 # calf20_ddec_super.cif Zn
488 1 5 0.688597 -1.699993435 4.299550257 25.06866449 # calf20_ddec_super.cif Zn
489 1 4 -0.189726 -0.6078607038 8.599657007 20.21131617 # calf20_ddec_super.cif N
490 1 4 -0.189706 6.640718085 1.09384201 22.44572089 # calf20_ddec_super.cif N
491 1 4 -0.189705 8.711572562 3.752906141 18.1800165 # calf20_ddec_super.cif N
492 1 4 -0.189705 -2.678712691 5.940590463 24.47702144 # calf20_ddec_super.cif N
493 1 4 -0.19279 7.03408516 8.2411017 20.56918875 # calf20_ddec_super.cif N
494 1 4 -0.192839 -1.001226694 1.45239628 22.08784739 # calf20_ddec_super.cif N
495 1 4 -0.192842 1.0696294 3.394352278 17.82214209 # calf20_ddec_super.cif N
496 1 4 -0.19284 4.96323186 6.299146241 24.83489436 # calf20_ddec_super.cif N
497 1 4 -0.317825 7.720454661 6.860405446 18.97841319 # calf20_ddec_super.cif N
498 1 4 -0.317856 -1.687595646 2.833095034 23.67862575 # calf20_ddec_super.cif N
499 1 4 -0.317783 0.3832587931 2.013656528 19.41292048 # calf20_ddec_super.cif N
500 1 4 -0.317845 5.649600084 7.679845361 23.24411543 # calf20_ddec_super.cif N
501 1 3 -0.498914 1.732623956 0.7497797058 22.28671918 # calf20_ddec_super.cif O
502 1 3 -0.498913 4.300236491 8.943720654 20.37032299 # calf20_ddec_super.cif O
503 1 3 -0.498917 2.229378648 5.596527308 24.63602727 # calf20_ddec_super.cif O
504 1 3 -0.498914 3.803477788 4.096979264 18.02100455 # calf20_ddec_super.cif O
505 1 3 -0.504972 3.868343496 0.3083222689 22.83839855 # calf20_ddec_super.cif O
506 1 3 -0.504996 2.164520016 9.385174018 19.81863514 # calf20_ddec_super.cif O
507 1 3 -0.504964 0.09367009863 5.155074705 24.08434507 # calf20_ddec_super.cif O
508 1 3 -0.504947 5.939191273 4.538426897 18.57269254 # calf20_ddec_super.cif O
509 1 2 0.1511 -0.223467294 7.758856516 19.2531214 # calf20_ddec_super.cif C
510 1 2 0.151084 6.256322886 1.934642661 23.40391829 # calf20_ddec_super.cif C
511 1 2 0.151075 8.327178878 2.912105986 19.13821392 # calf20_ddec_super.cif C
512 1 2 0.15109 -2.29432125 6.781392844 23.51882491 # calf20_ddec_super.cif C
513 1 2 0.163631 6.712765674 7.194843639 19.81741992 # calf20_ddec_super.cif C
514 1 2 0.163688 -0.6799074874 2.498656662 22.83961786 # calf20_ddec_super.cif C
515 1 2 0.163655 1.390946221 2.348093248 18.57391435 # calf20_ddec_super.cif C
516 1 2 0.163692 4.641912522 7.345406181 24.08312377 # calf20_ddec_super.cif C
517 1 2 0.467519 2.897372585 0.3040470826 22.03721727 # calf20_ddec_super.cif C
518 1 2 0.467537 3.135492204 9.389450793 20.61982263 # calf20_ddec_super.cif C
519 1 2 0.467506 1.064641821 5.150798943 24.88552855 # calf20_ddec_super.cif C
520 1 2 0.46749 4.968229221 4.542704938 17.77151109 # calf20_ddec_super.cif C
521 1 1 0.115606 0.7493432061 7.814779699 18.77877642 # calf20_ddec_super.cif H
522 1 1 0.115616 5.283513956 1.878720371 23.8782622 # calf20_ddec_super.cif H
523 1 1 0.115601 7.354368351 2.96802945 19.61255809 # calf20_ddec_super.cif H
524 1 1 0.11561 -1.321511912 6.725469566 23.04448076 # calf20_ddec_super.cif H
525 1 1 0.117813 5.758067792 6.686648241 19.87166162 # calf20_ddec_super.cif H
526 1 1 0.117793 0.2747878711 3.006849557 22.78537586 # calf20_ddec_super.cif H
527 1 1 0.117796 2.345643096 1.83989971 18.51967247 # calf20_ddec_super.cif H
528 1 1 0.117789 3.687214403 7.853600363 24.13736606 # calf20_ddec_super.cif H
529 1 5 0.688558 8.654274226 10.24069652 3.740147571 # calf20_ddec_super.cif Zn
530 1 5 0.688576 13.94541175 18.83980127 4.791260809 # calf20_ddec_super.cif Zn
531 1 5 0.688578 16.01627038 15.08744532 0.5255578396 # calf20_ddec_super.cif Zn
532 1 5 0.688597 6.583423171 13.99304982 8.00584938 # calf20_ddec_super.cif Zn
533 1 4 -0.189726 7.675555902 18.29315657 3.148501056 # calf20_ddec_super.cif N
534 1 4 -0.189706 14.92413469 10.78734158 5.382905782 # calf20_ddec_super.cif N
535 1 4 -0.189705 16.99498917 13.44640571 1.117201382 # calf20_ddec_super.cif N
536 1 4 -0.189705 5.604703915 15.63409003 7.414206329 # calf20_ddec_super.cif N
537 1 4 -0.19279 15.31750177 17.93460127 3.506373637 # calf20_ddec_super.cif N
538 1 4 -0.192839 7.282189912 11.14589584 5.025032275 # calf20_ddec_super.cif N
539 1 4 -0.192842 9.353046006 13.08785184 0.7593269757 # calf20_ddec_super.cif N
540 1 4 -0.19284 13.24664847 15.99264581 7.77207925 # calf20_ddec_super.cif N
541 1 4 -0.317825 16.00387127 16.55390501 1.915598076 # calf20_ddec_super.cif N
542 1 4 -0.317856 6.59582096 12.5265946 6.615810637 # calf20_ddec_super.cif N
543 1 4 -0.317783 8.666675399 11.70715609 2.350105369 # calf20_ddec_super.cif N
544 1 4 -0.317845 13.93301669 17.37334493 6.18130032 # calf20_ddec_super.cif N
545 1 3 -0.498914 10.01604056 10.44327927 5.223904067 # calf20_ddec_super.cif O
546 1 3 -0.498913 12.5836531 18.63722022 3.307507881 # calf20_ddec_super.cif O
547 1 3 -0.498917 10.51279525 15.29002687 7.573212158 # calf20_ddec_super.cif O
548 1 3 -0.498914 12.08689439 13.79047883 0.9581894332 # calf20_ddec_super.cif O
549 1 3 -0.504972 12.1517601 10.00182183 5.77558344 # calf20_ddec_super.cif O
550 1 3 -0.504996 10.44793662 19.07867358 2.755820029 # calf20_ddec_super.cif O
551 1 3 -0.504964 8.377086705 14.84857427 7.021529959 # calf20_ddec_super.cif O
552 1 3 -0.504947 14.22260788 14.23192646 1.509877429 # calf20_ddec_super.cif O
553 1 2 0.1511 8.059949312 17.45235608 2.190306286 # calf20_ddec_super.cif C
554 1 2 0.151084 14.53973949 11.62814223 6.341103173 # calf20_ddec_super.cif C
555 1 2 0.151075 16.61059548 12.60560555 2.075398808 # calf20_ddec_super.cif C
556 1 2 0.15109 5.989095356 16.47489241 6.456009795 # calf20_ddec_super.cif C
557 1 2 0.163631 14.99618228 16.8883432 2.754604803 # calf20_ddec_super.cif C
558 1 2 0.163688 7.603509119 12.19215623 5.77680275 # calf20_ddec_super.cif C
559 1 2 0.163655 9.674362827 12.04159281 1.511099236 # calf20_ddec_super.cif C
560 1 2 0.163692 12.92532913 17.03890575 7.02030866 # calf20_ddec_super.cif C
561 1 2 0.467519 11.18078919 9.997546648 4.974402156 # calf20_ddec_super.cif C
562 1 2 0.467537 11.41890881 19.08295036 3.557007514 # calf20_ddec_super.cif C
563 1 2 0.467506 9.348058427 14.84429851 7.822713437 # calf20_ddec_super.cif C
564 1 2 0.46749 13.25164583 14.2362045 0.7086959802 # calf20_ddec_super.cif C
565 1 1 0.115606 9.032759812 17.50827926 1.715961306 # calf20_ddec_super.cif H
566 1 1 0.115616 13.56693056 11.57221994 6.815447083 # calf20_ddec_super.cif H
567 1 1 0.115601 15.63778496 12.66152902 2.549742976 # calf20_ddec_super.cif H
568 1 1 0.11561 6.961904694 16.41896913 5.981665648 # calf20_ddec_super.cif H
569 1 1 0.117813 14.0414844 16.38014781 2.808846504 # calf20_ddec_super.cif H
570 1 1 0.117793 8.558204477 12.70034912 5.722560742 # calf20_ddec_super.cif H
571 1 1 0.117796 10.6290597 11.53339928 1.456857357 # calf20_ddec_super.cif H
572 1 1 0.117789 11.97063101 17.54709993 7.074550945 # calf20_ddec_super.cif H
573 1 5 0.688558 4.512565923 10.24069652 12.27155513 # calf20_ddec_super.cif Zn
574 1 5 0.688576 9.803703448 18.83980127 13.32266837 # calf20_ddec_super.cif Zn
575 1 5 0.688578 11.87456208 15.08744532 9.056965396 # calf20_ddec_super.cif Zn
576 1 5 0.688597 2.441714868 13.99304982 16.53725694 # calf20_ddec_super.cif Zn
577 1 4 -0.189726 3.533847599 18.29315657 11.67990861 # calf20_ddec_super.cif N
578 1 4 -0.189706 10.78242639 10.78734158 13.91431334 # calf20_ddec_super.cif N
579 1 4 -0.189705 12.85328087 13.44640571 9.648608938 # calf20_ddec_super.cif N
580 1 4 -0.189705 1.462995612 15.63409003 15.94561389 # calf20_ddec_super.cif N
581 1 4 -0.19279 11.17579346 17.93460127 12.03778119 # calf20_ddec_super.cif N
582 1 4 -0.192839 3.140481609 11.14589584 13.55643983 # calf20_ddec_super.cif N
583 1 4 -0.192842 5.211337703 13.08785184 9.290734532 # calf20_ddec_super.cif N
584 1 4 -0.19284 9.104940163 15.99264581 16.30348681 # calf20_ddec_super.cif N
585 1 4 -0.317825 11.86216296 16.55390501 10.44700563 # calf20_ddec_super.cif N
586 1 4 -0.317856 2.454112657 12.5265946 15.14721819 # calf20_ddec_super.cif N
587 1 4 -0.317783 4.524967096 11.70715609 10.88151293 # calf20_ddec_super.cif N
588 1 4 -0.317845 9.791308387 17.37334493 14.71270788 # calf20_ddec_super.cif N
589 1 3 -0.498914 5.874332259 10.44327927 13.75531162 # calf20_ddec_super.cif O
590 1 3 -0.498913 8.441944794 18.63722022 11.83891544 # calf20_ddec_super.cif O
591 1 3 -0.498917 6.371086951 15.29002687 16.10461971 # calf20_ddec_super.cif O
592 1 3 -0.498914 7.945186091 13.79047883 9.48959699 # calf20_ddec_super.cif O
593 1 3 -0.504972 8.010051799 10.00182183 14.306991 # calf20_ddec_super.cif O
594 1 3 -0.504996 6.306228319 19.07867358 11.28722759 # calf20_ddec_super.cif O
595 1 3 -0.504964 4.235378402 14.84857427 15.55293752 # calf20_ddec_super.cif O
596 1 3 -0.504947 10.08089958 14.23192646 10.04128499 # calf20_ddec_super.cif O
597 1 2 0.1511 3.918241009 17.45235608 10.72171384 # calf20_ddec_super.cif C
598 1 2 0.151084 10.39803119 11.62814223 14.87251073 # calf20_ddec_super.cif C
599 1 2 0.151075 12.46888718 12.60560555 10.60680636 # calf20_ddec_super.cif C
600 1 2 0.15109 1.847387053 16.47489241 14.98741735 # calf20_ddec_super.cif C
601 1 2 0.163631 10.85447398 16.8883432 11.28601236 # calf20_ddec_super.cif C
602 1 2 0.163688 3.461800816 12.19215623 14.30821031 # calf20_ddec_super.cif C
603 1 2 0.163655 5.532654524 12.04159281 10.04250679 # calf20_ddec_super.cif C
604 1 2 0.163692 8.783620825 17.03890575 15.55171622 # calf20_ddec_super.cif C
605 1 2 0.467519 7.039080888 9.997546648 13.50580971 # calf20_ddec_super.cif C
606 1 2 0.467537 7.277200507 19.08295036 12.08841507 # calf20_ddec_super.cif C
607 1 2 0.467506 5.206350124 14.84429851 16.35412099 # calf20_ddec_super.cif C
608 1 2 0.46749 9.109937524 14.2362045 9.240103537 # calf20_ddec_super.cif C
609 1 1 0.115606 4.891051509 17.50827926 10.24736886 # calf20_ddec_super.cif H
610 1 1 0.115616 9.425222259 11.57221994 15.34685464 # calf20_ddec_super.cif H
611 1 1 0.115601 11.49607665 12.66152902 11.08115053 # calf20_ddec_super.cif H
612 1 1 0.11561 2.820196391 16.41896913 14.5130732 # calf20_ddec_super.cif H
613 1 1 0.117813 9.899776095 16.38014781 11.34025406 # calf20_ddec_super.cif H
614 1 1 0.117793 4.416496174 12.70034912 14.2539683 # calf20_ddec_super.cif H
615 1 1 0.117796 6.487351399 11.53339928 9.988264914 # calf20_ddec_super.cif H
616 1 1 0.117789 7.828922706 17.54709993 15.6059585 # calf20_ddec_super.cif H
617 1 5 0.688558 0.3708576199 10.24069652 20.80296268 # calf20_ddec_super.cif Zn
618 1 5 0.688576 5.661995145 18.83980127 21.85407592 # calf20_ddec_super.cif Zn
619 1 5 0.688578 7.732853773 15.08744532 17.58837295 # calf20_ddec_super.cif Zn
620 1 5 0.688597 -1.699993435 13.99304982 25.06866449 # calf20_ddec_super.cif Zn
621 1 4 -0.189726 -0.6078607038 18.29315657 20.21131617 # calf20_ddec_super.cif N
622 1 4 -0.189706 6.640718085 10.78734158 22.44572089 # calf20_ddec_super.cif N
623 1 4 -0.189705 8.711572562 13.44640571 18.1800165 # calf20_ddec_super.cif N
624 1 4 -0.189705 -2.678712691 15.63409003 24.47702144 # calf20_ddec_super.cif N
625 1 4 -0.19279 7.03408516 17.93460127 20.56918875 # calf20_ddec_super.cif N
626 1 4 -0.192839 -1.001226694 11.14589584 22.08784739 # calf20_ddec_super.cif N
627 1 4 -0.192842 1.0696294 13.08785184 17.82214209 # calf20_ddec_super.cif N
628 1 4 -0.19284 4.96323186 15.99264581 24.83489436 # calf20_ddec_super.cif N
629 1 4 -0.317825 7.720454661 16.55390501 18.97841319 # calf20_ddec_super.cif N
630 1 4 -0.317856 -1.687595646 12.5265946 23.67862575 # calf20_ddec_super.cif N
631 1 4 -0.317783 0.3832587931 11.70715609 19.41292048 # calf20_ddec_super.cif N
632 1 4 -0.317845 5.649600084 17.37334493 23.24411543 # calf20_ddec_super.cif N
633 1 3 -0.498914 1.732623956 10.44327927 22.28671918 # calf20_ddec_super.cif O
634 1 3 -0.498913 4.300236491 18.63722022 20.37032299 # calf20_ddec_super.cif O
635 1 3 -0.498917 2.229378648 15.29002687 24.63602727 # calf20_ddec_super.cif O
636 1 3 -0.498914 3.803477788 13.79047883 18.02100455 # calf20_ddec_super.cif O
637 1 3 -0.504972 3.868343496 10.00182183 22.83839855 # calf20_ddec_super.cif O
638 1 3 -0.504996 2.164520016 19.07867358 19.81863514 # calf20_ddec_super.cif O
639 1 3 -0.504964 0.09367009863 14.84857427 24.08434507 # calf20_ddec_super.cif O
640 1 3 -0.504947 5.939191273 14.23192646 18.57269254 # calf20_ddec_super.cif O
641 1 2 0.1511 -0.223467294 17.45235608 19.2531214 # calf20_ddec_super.cif C
642 1 2 0.151084 6.256322886 11.62814223 23.40391829 # calf20_ddec_super.cif C
643 1 2 0.151075 8.327178878 12.60560555 19.13821392 # calf20_ddec_super.cif C
644 1 2 0.15109 -2.29432125 16.47489241 23.51882491 # calf20_ddec_super.cif C
645 1 2 0.163631 6.712765674 16.8883432 19.81741992 # calf20_ddec_super.cif C
646 1 2 0.163688 -0.6799074874 12.19215623 22.83961786 # calf20_ddec_super.cif C
647 1 2 0.163655 1.390946221 12.04159281 18.57391435 # calf20_ddec_super.cif C
648 1 2 0.163692 4.641912522 17.03890575 24.08312377 # calf20_ddec_super.cif C
649 1 2 0.467519 2.897372585 9.997546648 22.03721727 # calf20_ddec_super.cif C
650 1 2 0.467537 3.135492204 19.08295036 20.61982263 # calf20_ddec_super.cif C
651 1 2 0.467506 1.064641821 14.84429851 24.88552855 # calf20_ddec_super.cif C
652 1 2 0.46749 4.968229221 14.2362045 17.77151109 # calf20_ddec_super.cif C
653 1 1 0.115606 0.7493432061 17.50827926 18.77877642 # calf20_ddec_super.cif H
654 1 1 0.115616 5.283513956 11.57221994 23.8782622 # calf20_ddec_super.cif H
655 1 1 0.115601 7.354368351 12.66152902 19.61255809 # calf20_ddec_super.cif H
656 1 1 0.11561 -1.321511912 16.41896913 23.04448076 # calf20_ddec_super.cif H
657 1 1 0.117813 5.758067792 16.38014781 19.87166162 # calf20_ddec_super.cif H
658 1 1 0.117793 0.2747878711 12.70034912 22.78537586 # calf20_ddec_super.cif H
659 1 1 0.117796 2.345643096 11.53339928 18.51967247 # calf20_ddec_super.cif H
660 1 1 0.117789 3.687214403 17.54709993 24.13736606 # calf20_ddec_super.cif H
661 1 5 0.688558 8.654274226 19.93419609 3.740147571 # calf20_ddec_super.cif Zn
662 1 5 0.688576 13.94541175 28.53330084 4.791260809 # calf20_ddec_super.cif Zn
663 1 5 0.688578 16.01627038 24.78094488 0.5255578396 # calf20_ddec_super.cif Zn
664 1 5 0.688597 6.583423171 23.68654939 8.00584938 # calf20_ddec_super.cif Zn
665 1 4 -0.189726 7.675555902 27.98665614 3.148501056 # calf20_ddec_super.cif N
666 1 4 -0.189706 14.92413469 20.48084114 5.382905782 # calf20_ddec_super.cif N
667 1 4 -0.189705 16.99498917 23.13990527 1.117201382 # calf20_ddec_super.cif N
668 1 4 -0.189705 5.604703915 25.32758959 7.414206329 # calf20_ddec_super.cif N
669 1 4 -0.19279 15.31750177 27.62810083 3.506373637 # calf20_ddec_super.cif N
670 1 4 -0.192839 7.282189912 20.83939541 5.025032275 # calf20_ddec_super.cif N
671 1 4 -0.192842 9.353046006 22.78135141 0.7593269757 # calf20_ddec_super.cif N
672 1 4 -0.19284 13.24664847 25.68614537 7.77207925 # calf20_ddec_super.cif N
673 1 4 -0.317825 16.00387127 26.24740458 1.915598076 # calf20_ddec_super.cif N
674 1 4 -0.317856 6.59582096 22.22009416 6.615810637 # calf20_ddec_super.cif N
675 1 4 -0.317783 8.666675399 21.40065566 2.350105369 # calf20_ddec_super.cif N
676 1 4 -0.317845 13.93301669 27.06684449 6.18130032 # calf20_ddec_super.cif N
677 1 3 -0.498914 10.01604056 20.13677884 5.223904067 # calf20_ddec_super.cif O
678 1 3 -0.498913 12.5836531 28.33071978 3.307507881 # calf20_ddec_super.cif O
679 1 3 -0.498917 10.51279525 24.98352644 7.573212158 # calf20_ddec_super.cif O
680 1 3 -0.498914 12.08689439 23.48397839 0.9581894332 # calf20_ddec_super.cif O
681 1 3 -0.504972 12.1517601 19.6953214 5.77558344 # calf20_ddec_super.cif O
682 1 3 -0.504996 10.44793662 28.77217315 2.755820029 # calf20_ddec_super.cif O
683 1 3 -0.504964 8.377086705 24.54207383 7.021529959 # calf20_ddec_super.cif O
684 1 3 -0.504947 14.22260788 23.92542603 1.509877429 # calf20_ddec_super.cif O
685 1 2 0.1511 8.059949312 27.14585565 2.190306286 # calf20_ddec_super.cif C
686 1 2 0.151084 14.53973949 21.32164179 6.341103173 # calf20_ddec_super.cif C
687 1 2 0.151075 16.61059548 22.29910512 2.075398808 # calf20_ddec_super.cif C
688 1 2 0.15109 5.989095356 26.16839197 6.456009795 # calf20_ddec_super.cif C
689 1 2 0.163631 14.99618228 26.58184277 2.754604803 # calf20_ddec_super.cif C
690 1 2 0.163688 7.603509119 21.88565579 5.77680275 # calf20_ddec_super.cif C
691 1 2 0.163655 9.674362827 21.73509238 1.511099236 # calf20_ddec_super.cif C
692 1 2 0.163692 12.92532913 26.73240531 7.02030866 # calf20_ddec_super.cif C
693 1 2 0.467519 11.18078919 19.69104621 4.974402156 # calf20_ddec_super.cif C
694 1 2 0.467537 11.41890881 28.77644992 3.557007514 # calf20_ddec_super.cif C
695 1 2 0.467506 9.348058427 24.53779807 7.822713437 # calf20_ddec_super.cif C
696 1 2 0.46749 13.25164583 23.92970407 0.7086959802 # calf20_ddec_super.cif C
697 1 1 0.115606 9.032759812 27.20177883 1.715961306 # calf20_ddec_super.cif H
698 1 1 0.115616 13.56693056 21.2657195 6.815447083 # calf20_ddec_super.cif H
699 1 1 0.115601 15.63778496 22.35502858 2.549742976 # calf20_ddec_super.cif H
700 1 1 0.11561 6.961904694 26.1124687 5.981665648 # calf20_ddec_super.cif H
701 1 1 0.117813 14.0414844 26.07364737 2.808846504 # calf20_ddec_super.cif H
702 1 1 0.117793 8.558204477 22.39384869 5.722560742 # calf20_ddec_super.cif H
703 1 1 0.117796 10.6290597 21.22689884 1.456857357 # calf20_ddec_super.cif H
704 1 1 0.117789 11.97063101 27.24059949 7.074550945 # calf20_ddec_super.cif H
705 1 5 0.688558 4.512565923 19.93419609 12.27155513 # calf20_ddec_super.cif Zn
706 1 5 0.688576 9.803703448 28.53330084 13.32266837 # calf20_ddec_super.cif Zn
707 1 5 0.688578 11.87456208 24.78094488 9.056965396 # calf20_ddec_super.cif Zn
708 1 5 0.688597 2.441714868 23.68654939 16.53725694 # calf20_ddec_super.cif Zn
709 1 4 -0.189726 3.533847599 27.98665614 11.67990861 # calf20_ddec_super.cif N
710 1 4 -0.189706 10.78242639 20.48084114 13.91431334 # calf20_ddec_super.cif N
711 1 4 -0.189705 12.85328087 23.13990527 9.648608938 # calf20_ddec_super.cif N
712 1 4 -0.189705 1.462995612 25.32758959 15.94561389 # calf20_ddec_super.cif N
713 1 4 -0.19279 11.17579346 27.62810083 12.03778119 # calf20_ddec_super.cif N
714 1 4 -0.192839 3.140481609 20.83939541 13.55643983 # calf20_ddec_super.cif N
715 1 4 -0.192842 5.211337703 22.78135141 9.290734532 # calf20_ddec_super.cif N
716 1 4 -0.19284 9.104940163 25.68614537 16.30348681 # calf20_ddec_super.cif N
717 1 4 -0.317825 11.86216296 26.24740458 10.44700563 # calf20_ddec_super.cif N
718 1 4 -0.317856 2.454112657 22.22009416 15.14721819 # calf20_ddec_super.cif N
719 1 4 -0.317783 4.524967096 21.40065566 10.88151293 # calf20_ddec_super.cif N
720 1 4 -0.317845 9.791308387 27.06684449 14.71270788 # calf20_ddec_super.cif N
721 1 3 -0.498914 5.874332259 20.13677884 13.75531162 # calf20_ddec_super.cif O
722 1 3 -0.498913 8.441944794 28.33071978 11.83891544 # calf20_ddec_super.cif O
723 1 3 -0.498917 6.371086951 24.98352644 16.10461971 # calf20_ddec_super.cif O
724 1 3 -0.498914 7.945186091 23.48397839 9.48959699 # calf20_ddec_super.cif O
725 1 3 -0.504972 8.010051799 19.6953214 14.306991 # calf20_ddec_super.cif O
726 1 3 -0.504996 6.306228319 28.77217315 11.28722759 # calf20_ddec_super.cif O
727 1 3 -0.504964 4.235378402 24.54207383 15.55293752 # calf20_ddec_super.cif O
728 1 3 -0.504947 10.08089958 23.92542603 10.04128499 # calf20_ddec_super.cif O
729 1 2 0.1511 3.918241009 27.14585565 10.72171384 # calf20_ddec_super.cif C
730 1 2 0.151084 10.39803119 21.32164179 14.87251073 # calf20_ddec_super.cif C
731 1 2 0.151075 12.46888718 22.29910512 10.60680636 # calf20_ddec_super.cif C
732 1 2 0.15109 1.847387053 26.16839197 14.98741735 # calf20_ddec_super.cif C
733 1 2 0.163631 10.85447398 26.58184277 11.28601236 # calf20_ddec_super.cif C
734 1 2 0.163688 3.461800816 21.88565579 14.30821031 # calf20_ddec_super.cif C
735 1 2 0.163655 5.532654524 21.73509238 10.04250679 # calf20_ddec_super.cif C
736 1 2 0.163692 8.783620825 26.73240531 15.55171622 # calf20_ddec_super.cif C
737 1 2 0.467519 7.039080888 19.69104621 13.50580971 # calf20_ddec_super.cif C
738 1 2 0.467537 7.277200507 28.77644992 12.08841507 # calf20_ddec_super.cif C
739 1 2 0.467506 5.206350124 24.53779807 16.35412099 # calf20_ddec_super.cif C
740 1 2 0.46749 9.109937524 23.92970407 9.240103537 # calf20_ddec_super.cif C
741 1 1 0.115606 4.891051509 27.20177883 10.24736886 # calf20_ddec_super.cif H
742 1 1 0.115616 9.425222259 21.2657195 15.34685464 # calf20_ddec_super.cif H
743 1 1 0.115601 11.49607665 22.35502858 11.08115053 # calf20_ddec_super.cif H
744 1 1 0.11561 2.820196391 26.1124687 14.5130732 # calf20_ddec_super.cif H
745 1 1 0.117813 9.899776095 26.07364737 11.34025406 # calf20_ddec_super.cif H
746 1 1 0.117793 4.416496174 22.39384869 14.2539683 # calf20_ddec_super.cif H
747 1 1 0.117796 6.487351399 21.22689884 9.988264914 # calf20_ddec_super.cif H
748 1 1 0.117789 7.828922706 27.24059949 15.6059585 # calf20_ddec_super.cif H
749 1 5 0.688558 0.3708576199 19.93419609 20.80296268 # calf20_ddec_super.cif Zn
750 1 5 0.688576 5.661995145 28.53330084 21.85407592 # calf20_ddec_super.cif Zn
751 1 5 0.688578 7.732853773 24.78094488 17.58837295 # calf20_ddec_super.cif Zn
752 1 5 0.688597 -1.699993435 23.68654939 25.06866449 # calf20_ddec_super.cif Zn
753 1 4 -0.189726 -0.6078607038 27.98665614 20.21131617 # calf20_ddec_super.cif N
754 1 4 -0.189706 6.640718085 20.48084114 22.44572089 # calf20_ddec_super.cif N
755 1 4 -0.189705 8.711572562 23.13990527 18.1800165 # calf20_ddec_super.cif N
756 1 4 -0.189705 -2.678712691 25.32758959 24.47702144 # calf20_ddec_super.cif N
757 1 4 -0.19279 7.03408516 27.62810083 20.56918875 # calf20_ddec_super.cif N
758 1 4 -0.192839 -1.001226694 20.83939541 22.08784739 # calf20_ddec_super.cif N
759 1 4 -0.192842 1.0696294 22.78135141 17.82214209 # calf20_ddec_super.cif N
760 1 4 -0.19284 4.96323186 25.68614537 24.83489436 # calf20_ddec_super.cif N
761 1 4 -0.317825 7.720454661 26.24740458 18.97841319 # calf20_ddec_super.cif N
762 1 4 -0.317856 -1.687595646 22.22009416 23.67862575 # calf20_ddec_super.cif N
763 1 4 -0.317783 0.3832587931 21.40065566 19.41292048 # calf20_ddec_super.cif N
764 1 4 -0.317845 5.649600084 27.06684449 23.24411543 # calf20_ddec_super.cif N
765 1 3 -0.498914 1.732623956 20.13677884 22.28671918 # calf20_ddec_super.cif O
766 1 3 -0.498913 4.300236491 28.33071978 20.37032299 # calf20_ddec_super.cif O
767 1 3 -0.498917 2.229378648 24.98352644 24.63602727 # calf20_ddec_super.cif O
768 1 3 -0.498914 3.803477788 23.48397839 18.02100455 # calf20_ddec_super.cif O
769 1 3 -0.504972 3.868343496 19.6953214 22.83839855 # calf20_ddec_super.cif O
770 1 3 -0.504996 2.164520016 28.77217315 19.81863514 # calf20_ddec_super.cif O
771 1 3 -0.504964 0.09367009863 24.54207383 24.08434507 # calf20_ddec_super.cif O
772 1 3 -0.504947 5.939191273 23.92542603 18.57269254 # calf20_ddec_super.cif O
773 1 2 0.1511 -0.223467294 27.14585565 19.2531214 # calf20_ddec_super.cif C
774 1 2 0.151084 6.256322886 21.32164179 23.40391829 # calf20_ddec_super.cif C
775 1 2 0.151075 8.327178878 22.29910512 19.13821392 # calf20_ddec_super.cif C
776 1 2 0.15109 -2.29432125 26.16839197 23.51882491 # calf20_ddec_super.cif C
777 1 2 0.163631 6.712765674 26.58184277 19.81741992 # calf20_ddec_super.cif C
778 1 2 0.163688 -0.6799074874 21.88565579 22.83961786 # calf20_ddec_super.cif C
779 1 2 0.163655 1.390946221 21.73509238 18.57391435 # calf20_ddec_super.cif C
780 1 2 0.163692 4.641912522 26.73240531 24.08312377 # calf20_ddec_super.cif C
781 1 2 0.467519 2.897372585 19.69104621 22.03721727 # calf20_ddec_super.cif C
782 1 2 0.467537 3.135492204 28.77644992 20.61982263 # calf20_ddec_super.cif C
783 1 2 0.467506 1.064641821 24.53779807 24.88552855 # calf20_ddec_super.cif C
784 1 2 0.46749 4.968229221 23.92970407 17.77151109 # calf20_ddec_super.cif C
785 1 1 0.115606 0.7493432061 27.20177883 18.77877642 # calf20_ddec_super.cif H
786 1 1 0.115616 5.283513956 21.2657195 23.8782622 # calf20_ddec_super.cif H
787 1 1 0.115601 7.354368351 22.35502858 19.61255809 # calf20_ddec_super.cif H
788 1 1 0.11561 -1.321511912 26.1124687 23.04448076 # calf20_ddec_super.cif H
789 1 1 0.117813 5.758067792 26.07364737 19.87166162 # calf20_ddec_super.cif H
790 1 1 0.117793 0.2747878711 22.39384869 22.78537586 # calf20_ddec_super.cif H
791 1 1 0.117796 2.345643096 21.22689884 18.51967247 # calf20_ddec_super.cif H
792 1 1 0.117789 3.687214403 27.24059949 24.13736606 # calf20_ddec_super.cif H
793 1 5 0.688558 17.56807447 0.5471969582 3.740147571 # calf20_ddec_super.cif Zn
794 1 5 0.688576 22.85921199 9.146301706 4.791260809 # calf20_ddec_super.cif Zn
795 1 5 0.688578 24.93007062 5.393945751 0.5255578396 # calf20_ddec_super.cif Zn
796 1 5 0.688597 15.49722341 4.299550257 8.00584938 # calf20_ddec_super.cif Zn
797 1 4 -0.189726 16.58935614 8.599657007 3.148501056 # calf20_ddec_super.cif N
798 1 4 -0.189706 23.83793493 1.09384201 5.382905782 # calf20_ddec_super.cif N
799 1 4 -0.189705 25.90878941 3.752906141 1.117201382 # calf20_ddec_super.cif N
800 1 4 -0.189705 14.51850415 5.940590463 7.414206329 # calf20_ddec_super.cif N
801 1 4 -0.19279 24.23130201 8.2411017 3.506373637 # calf20_ddec_super.cif N
802 1 4 -0.192839 16.19599015 1.45239628 5.025032275 # calf20_ddec_super.cif N
803 1 4 -0.192842 18.26684625 3.394352278 0.7593269757 # calf20_ddec_super.cif N
804 1 4 -0.19284 22.16044871 6.299146241 7.77207925 # calf20_ddec_super.cif N
805 1 4 -0.317825 24.91767151 6.860405446 1.915598076 # calf20_ddec_super.cif N
806 1 4 -0.317856 15.5096212 2.833095034 6.615810637 # calf20_ddec_super.cif N
807 1 4 -0.317783 17.58047564 2.013656528 2.350105369 # calf20_ddec_super.cif N
808 1 4 -0.317845 22.84681693 7.679845361 6.18130032 # calf20_ddec_super.cif N
809 1 3 -0.498914 18.9298408 0.7497797058 5.223904067 # calf20_ddec_super.cif O
810 1 3 -0.498913 21.49745334 8.943720654 3.307507881 # calf20_ddec_super.cif O
811 1 3 -0.498917 19.42659549 5.596527308 7.573212158 # calf20_ddec_super.cif O
812 1 3 -0.498914 21.00069463 4.096979264 0.9581894332 # calf20_ddec_super.cif O
813 1 3 -0.504972 21.06556034 0.3083222689 5.77558344 # calf20_ddec_super.cif O
814 1 3 -0.504996 19.36173686 9.385174018 2.755820029 # calf20_ddec_super.cif O
815 1 3 -0.504964 17.29088694 5.155074705 7.021529959 # calf20_ddec_super.cif O
816 1 3 -0.504947 23.13640812 4.538426897 1.509877429 # calf20_ddec_super.cif O
817 1 2 0.1511 16.97374955 7.758856516 2.190306286 # calf20_ddec_super.cif C
818 1 2 0.151084 23.45353973 1.934642661 6.341103173 # calf20_ddec_super.cif C
819 1 2 0.151075 25.52439572 2.912105986 2.075398808 # calf20_ddec_super.cif C
820 1 2 0.15109 14.9028956 6.781392844 6.456009795 # calf20_ddec_super.cif C
821 1 2 0.163631 23.90998252 7.194843639 2.754604803 # calf20_ddec_super.cif C
822 1 2 0.163688 16.51730936 2.498656662 5.77680275 # calf20_ddec_super.cif C
823 1 2 0.163655 18.58816307 2.348093248 1.511099236 # calf20_ddec_super.cif C
824 1 2 0.163692 21.83912937 7.345406181 7.02030866 # calf20_ddec_super.cif C
825 1 2 0.467519 20.09458943 0.3040470826 4.974402156 # calf20_ddec_super.cif C
826 1 2 0.467537 20.33270905 9.389450793 3.557007514 # calf20_ddec_super.cif C
827 1 2 0.467506 18.26185867 5.150798943 7.822713437 # calf20_ddec_super.cif C
828 1 2 0.46749 22.16544607 4.542704938 0.7086959802 # calf20_ddec_super.cif C
829 1 1 0.115606 17.94656005 7.814779699 1.715961306 # calf20_ddec_super.cif H
830 1 1 0.115616 22.4807308 1.878720371 6.815447083 # calf20_ddec_super.cif H
831 1 1 0.115601 24.5515852 2.96802945 2.549742976 # calf20_ddec_super.cif H
832 1 1 0.11561 15.87570493 6.725469566 5.981665648 # calf20_ddec_super.cif H
833 1 1 0.117813 22.95528464 6.686648241 2.808846504 # calf20_ddec_super.cif H
834 1 1 0.117793 17.47200472 3.006849557 5.722560742 # calf20_ddec_super.cif H
835 1 1 0.117796 19.54285994 1.83989971 1.456857357 # calf20_ddec_super.cif H
836 1 1 0.117789 20.88443125 7.853600363 7.074550945 # calf20_ddec_super.cif H
837 1 5 0.688558 13.42636616 0.5471969582 12.27155513 # calf20_ddec_super.cif Zn
838 1 5 0.688576 18.71750369 9.146301706 13.32266837 # calf20_ddec_super.cif Zn
839 1 5 0.688578 20.78836232 5.393945751 9.056965396 # calf20_ddec_super.cif Zn
840 1 5 0.688597 11.35551511 4.299550257 16.53725694 # calf20_ddec_super.cif Zn
841 1 4 -0.189726 12.44764784 8.599657007 11.67990861 # calf20_ddec_super.cif N
842 1 4 -0.189706 19.69622663 1.09384201 13.91431334 # calf20_ddec_super.cif N
843 1 4 -0.189705 21.76708111 3.752906141 9.648608938 # calf20_ddec_super.cif N
844 1 4 -0.189705 10.37679585 5.940590463 15.94561389 # calf20_ddec_super.cif N
845 1 4 -0.19279 20.0895937 8.2411017 12.03778119 # calf20_ddec_super.cif N
846 1 4 -0.192839 12.05428185 1.45239628 13.55643983 # calf20_ddec_super.cif N
847 1 4 -0.192842 14.12513794 3.394352278 9.290734532 # calf20_ddec_super.cif N
848 1 4 -0.19284 18.0187404 6.299146241 16.30348681 # calf20_ddec_super.cif N
849 1 4 -0.317825 20.7759632 6.860405446 10.44700563 # calf20_ddec_super.cif N
850 1 4 -0.317856 11.3679129 2.833095034 15.14721819 # calf20_ddec_super.cif N
851 1 4 -0.317783 13.43876734 2.013656528 10.88151293 # calf20_ddec_super.cif N
852 1 4 -0.317845 18.70510863 7.679845361 14.71270788 # calf20_ddec_super.cif N
853 1 3 -0.498914 14.7881325 0.7497797058 13.75531162 # calf20_ddec_super.cif O
854 1 3 -0.498913 17.35574503 8.943720654 11.83891544 # calf20_ddec_super.cif O
855 1 3 -0.498917 15.28488719 5.596527308 16.10461971 # calf20_ddec_super.cif O
856 1 3 -0.498914 16.85898633 4.096979264 9.48959699 # calf20_ddec_super.cif O
857 1 3 -0.504972 16.92385204 0.3083222689 14.306991 # calf20_ddec_super.cif O
858 1 3 -0.504996 15.22002856 9.385174018 11.28722759 # calf20_ddec_super.cif O
859 1 3 -0.504964 13.14917864 5.155074705 15.55293752 # calf20_ddec_super.cif O
860 1 3 -0.504947 18.99469982 4.538426897 10.04128499 # calf20_ddec_super.cif O
861 1 2 0.1511 12.83204125 7.758856516 10.72171384 # calf20_ddec_super.cif C
862 1 2 0.151084 19.31183143 1.934642661 14.87251073 # calf20_ddec_super.cif C
863 1 2 0.151075 21.38268742 2.912105986 10.60680636 # calf20_ddec_super.cif C
864 1 2 0.15109 10.76118729 6.781392844 14.98741735 # calf20_ddec_super.cif C
865 1 2 0.163631 19.76827422 7.194843639 11.28601236 # calf20_ddec_super.cif C
866 1 2 0.163688 12.37560106 2.498656662 14.30821031 # calf20_ddec_super.cif C
867 1 2 0.163655 14.44645476 2.348093248 10.04250679 # calf20_ddec_super.cif C
868 1 2 0.163692 17.69742106 7.345406181 15.55171622 # calf20_ddec_super.cif C
869 1 2 0.467519 15.95288113 0.3040470826 13.50580971 # calf20_ddec_super.cif C
870 1 2 0.467537 16.19100075 9.389450793 12.08841507 # calf20_ddec_super.cif C
871 1 2 0.467506 14.12015036 5.150798943 16.35412099 # calf20_ddec_super.cif C
872 1 2 0.46749 18.02373776 4.542704938 9.240103537 # calf20_ddec_super.cif C
873 1 1 0.115606 13.80485175 7.814779699 10.24736886 # calf20_ddec_super.cif H
874 1 1 0.115616 18.3390225 1.878720371 15.34685464 # calf20_ddec_super.cif H
875 1 1 0.115601 20.40987689 2.96802945 11.08115053 # calf20_ddec_super.cif H
876 1 1 0.11561 11.73399663 6.725469566 14.5130732 # calf20_ddec_super.cif H
877 1 1 0.117813 18.81357633 6.686648241 11.34025406 # calf20_ddec_super.cif H
878 1 1 0.117793 13.33029641 3.006849557 14.2539683 # calf20_ddec_super.cif H
879 1 1 0.117796 15.40115164 1.83989971 9.988264914 # calf20_ddec_super.cif H
880 1 1 0.117789 16.74272295 7.853600363 15.6059585 # calf20_ddec_super.cif H
881 1 5 0.688558 9.28465786 0.5471969582 20.80296268 # calf20_ddec_super.cif Zn
882 1 5 0.688576 14.57579538 9.146301706 21.85407592 # calf20_ddec_super.cif Zn
883 1 5 0.688578 16.64665401 5.393945751 17.58837295 # calf20_ddec_super.cif Zn
884 1 5 0.688597 7.213806804 4.299550257 25.06866449 # calf20_ddec_super.cif Zn
885 1 4 -0.189726 8.305939536 8.599657007 20.21131617 # calf20_ddec_super.cif N
886 1 4 -0.189706 15.55451832 1.09384201 22.44572089 # calf20_ddec_super.cif N
887 1 4 -0.189705 17.6253728 3.752906141 18.1800165 # calf20_ddec_super.cif N
888 1 4 -0.189705 6.235087549 5.940590463 24.47702144 # calf20_ddec_super.cif N
889 1 4 -0.19279 15.9478854 8.2411017 20.56918875 # calf20_ddec_super.cif N
890 1 4 -0.192839 7.912573546 1.45239628 22.08784739 # calf20_ddec_super.cif N
891 1 4 -0.192842 9.98342964 3.394352278 17.82214209 # calf20_ddec_super.cif N
892 1 4 -0.19284 13.8770321 6.299146241 24.83489436 # calf20_ddec_super.cif N
893 1 4 -0.317825 16.6342549 6.860405446 18.97841319 # calf20_ddec_super.cif N
894 1 4 -0.317856 7.226204593 2.833095034 23.67862575 # calf20_ddec_super.cif N
895 1 4 -0.317783 9.297059033 2.013656528 19.41292048 # calf20_ddec_super.cif N
896 1 4 -0.317845 14.56340032 7.679845361 23.24411543 # calf20_ddec_super.cif N
897 1 3 -0.498914 10.6464242 0.7497797058 22.28671918 # calf20_ddec_super.cif O
898 1 3 -0.498913 13.21403673 8.943720654 20.37032299 # calf20_ddec_super.cif O
899 1 3 -0.498917 11.14317889 5.596527308 24.63602727 # calf20_ddec_super.cif O
900 1 3 -0.498914 12.71727803 4.096979264 18.02100455 # calf20_ddec_super.cif O
901 1 3 -0.504972 12.78214374 0.3083222689 22.83839855 # calf20_ddec_super.cif O
902 1 3 -0.504996 11.07832026 9.385174018 19.81863514 # calf20_ddec_super.cif O
903 1 3 -0.504964 9.007470338 5.155074705 24.08434507 # calf20_ddec_super.cif O
904 1 3 -0.504947 14.85299151 4.538426897 18.57269254 # calf20_ddec_super.cif O
905 1 2 0.1511 8.690332946 7.758856516 19.2531214 # calf20_ddec_super.cif C
906 1 2 0.151084 15.17012313 1.934642661 23.40391829 # calf20_ddec_super.cif C
907 1 2 0.151075 17.24097912 2.912105986 19.13821392 # calf20_ddec_super.cif C
908 1 2 0.15109 6.619478989 6.781392844 23.51882491 # calf20_ddec_super.cif C
909 1 2 0.163631 15.62656591 7.194843639 19.81741992 # calf20_ddec_super.cif C
910 1 2 0.163688 8.233892752 2.498656662 22.83961786 # calf20_ddec_super.cif C
911 1 2 0.163655 10.30474646 2.348093248 18.57391435 # calf20_ddec_super.cif C
912 1 2 0.163692 13.55571276 7.345406181 24.08312377 # calf20_ddec_super.cif C
913 1 2 0.467519 11.81117282 0.3040470826 22.03721727 # calf20_ddec_super.cif C
914 1 2 0.467537 12.04929244 9.389450793 20.61982263 # calf20_ddec_super.cif C
915 1 2 0.467506 9.97844206 5.150798943 24.88552855 # calf20_ddec_super.cif C
916 1 2 0.46749 13.88202946 4.542704938 17.77151109 # calf20_ddec_super.cif C
917 1 1 0.115606 9.663143446 7.814779699 18.77877642 # calf20_ddec_super.cif H
918 1 1 0.115616 14.1973142 1.878720371 23.8782622 # calf20_ddec_super.cif H
919 1 1 0.115601 16.26816859 2.96802945 19.61255809 # calf20_ddec_super.cif H
920 1 1 0.11561 7.592288327 6.725469566 23.04448076 # calf20_ddec_super.cif H
921 1 1 0.117813 14.67186803 6.686648241 19.87166162 # calf20_ddec_super.cif H
922 1 1 0.117793 9.188588111 3.006849557 22.78537586 # calf20_ddec_super.cif H
923 1 1 0.117796 11.25944334 1.83989971 18.51967247 # calf20_ddec_super.cif H
924 1 1 0.117789 12.60101464 7.853600363 24.13736606 # calf20_ddec_super.cif H
925 1 5 0.688558 17.56807447 10.24069652 3.740147571 # calf20_ddec_super.cif Zn
926 1 5 0.688576 22.85921199 18.83980127 4.791260809 # calf20_ddec_super.cif Zn
927 1 5 0.688578 24.93007062 15.08744532 0.5255578396 # calf20_ddec_super.cif Zn
928 1 5 0.688597 15.49722341 13.99304982 8.00584938 # calf20_ddec_super.cif Zn
929 1 4 -0.189726 16.58935614 18.29315657 3.148501056 # calf20_ddec_super.cif N
930 1 4 -0.189706 23.83793493 10.78734158 5.382905782 # calf20_ddec_super.cif N
931 1 4 -0.189705 25.90878941 13.44640571 1.117201382 # calf20_ddec_super.cif N
932 1 4 -0.189705 14.51850415 15.63409003 7.414206329 # calf20_ddec_super.cif N
933 1 4 -0.19279 24.23130201 17.93460127 3.506373637 # calf20_ddec_super.cif N
934 1 4 -0.192839 16.19599015 11.14589584 5.025032275 # calf20_ddec_super.cif N
935 1 4 -0.192842 18.26684625 13.08785184 0.7593269757 # calf20_ddec_super.cif N
936 1 4 -0.19284 22.16044871 15.99264581 7.77207925 # calf20_ddec_super.cif N
937 1 4 -0.317825 24.91767151 16.55390501 1.915598076 # calf20_ddec_super.cif N
938 1 4 -0.317856 15.5096212 12.5265946 6.615810637 # calf20_ddec_super.cif N
939 1 4 -0.317783 17.58047564 11.70715609 2.350105369 # calf20_ddec_super.cif N
940 1 4 -0.317845 22.84681693 17.37334493 6.18130032 # calf20_ddec_super.cif N
941 1 3 -0.498914 18.9298408 10.44327927 5.223904067 # calf20_ddec_super.cif O
942 1 3 -0.498913 21.49745334 18.63722022 3.307507881 # calf20_ddec_super.cif O
943 1 3 -0.498917 19.42659549 15.29002687 7.573212158 # calf20_ddec_super.cif O
944 1 3 -0.498914 21.00069463 13.79047883 0.9581894332 # calf20_ddec_super.cif O
945 1 3 -0.504972 21.06556034 10.00182183 5.77558344 # calf20_ddec_super.cif O
946 1 3 -0.504996 19.36173686 19.07867358 2.755820029 # calf20_ddec_super.cif O
947 1 3 -0.504964 17.29088694 14.84857427 7.021529959 # calf20_ddec_super.cif O
948 1 3 -0.504947 23.13640812 14.23192646 1.509877429 # calf20_ddec_super.cif O
949 1 2 0.1511 16.97374955 17.45235608 2.190306286 # calf20_ddec_super.cif C
950 1 2 0.151084 23.45353973 11.62814223 6.341103173 # calf20_ddec_super.cif C
951 1 2 0.151075 25.52439572 12.60560555 2.075398808 # calf20_ddec_super.cif C
952 1 2 0.15109 14.9028956 16.47489241 6.456009795 # calf20_ddec_super.cif C
953 1 2 0.163631 23.90998252 16.8883432 2.754604803 # calf20_ddec_super.cif C
954 1 2 0.163688 16.51730936 12.19215623 5.77680275 # calf20_ddec_super.cif C
955 1 2 0.163655 18.58816307 12.04159281 1.511099236 # calf20_ddec_super.cif C
956 1 2 0.163692 21.83912937 17.03890575 7.02030866 # calf20_ddec_super.cif C
957 1 2 0.467519 20.09458943 9.997546648 4.974402156 # calf20_ddec_super.cif C
958 1 2 0.467537 20.33270905 19.08295036 3.557007514 # calf20_ddec_super.cif C
959 1 2 0.467506 18.26185867 14.84429851 7.822713437 # calf20_ddec_super.cif C
960 1 2 0.46749 22.16544607 14.2362045 0.7086959802 # calf20_ddec_super.cif C
961 1 1 0.115606 17.94656005 17.50827926 1.715961306 # calf20_ddec_super.cif H
962 1 1 0.115616 22.4807308 11.57221994 6.815447083 # calf20_ddec_super.cif H
963 1 1 0.115601 24.5515852 12.66152902 2.549742976 # calf20_ddec_super.cif H
964 1 1 0.11561 15.87570493 16.41896913 5.981665648 # calf20_ddec_super.cif H
965 1 1 0.117813 22.95528464 16.38014781 2.808846504 # calf20_ddec_super.cif H
966 1 1 0.117793 17.47200472 12.70034912 5.722560742 # calf20_ddec_super.cif H
967 1 1 0.117796 19.54285994 11.53339928 1.456857357 # calf20_ddec_super.cif H
968 1 1 0.117789 20.88443125 17.54709993 7.074550945 # calf20_ddec_super.cif H
969 1 5 0.688558 13.42636616 10.24069652 12.27155513 # calf20_ddec_super.cif Zn
970 1 5 0.688576 18.71750369 18.83980127 13.32266837 # calf20_ddec_super.cif Zn
971 1 5 0.688578 20.78836232 15.08744532 9.056965396 # calf20_ddec_super.cif Zn
972 1 5 0.688597 11.35551511 13.99304982 16.53725694 # calf20_ddec_super.cif Zn
973 1 4 -0.189726 12.44764784 18.29315657 11.67990861 # calf20_ddec_super.cif N
974 1 4 -0.189706 19.69622663 10.78734158 13.91431334 # calf20_ddec_super.cif N
975 1 4 -0.189705 21.76708111 13.44640571 9.648608938 # calf20_ddec_super.cif N
976 1 4 -0.189705 10.37679585 15.63409003 15.94561389 # calf20_ddec_super.cif N
977 1 4 -0.19279 20.0895937 17.93460127 12.03778119 # calf20_ddec_super.cif N
978 1 4 -0.192839 12.05428185 11.14589584 13.55643983 # calf20_ddec_super.cif N
979 1 4 -0.192842 14.12513794 13.08785184 9.290734532 # calf20_ddec_super.cif N
980 1 4 -0.19284 18.0187404 15.99264581 16.30348681 # calf20_ddec_super.cif N
981 1 4 -0.317825 20.7759632 16.55390501 10.44700563 # calf20_ddec_super.cif N
982 1 4 -0.317856 11.3679129 12.5265946 15.14721819 # calf20_ddec_super.cif N
983 1 4 -0.317783 13.43876734 11.70715609 10.88151293 # calf20_ddec_super.cif N
984 1 4 -0.317845 18.70510863 17.37334493 14.71270788 # calf20_ddec_super.cif N
985 1 3 -0.498914 14.7881325 10.44327927 13.75531162 # calf20_ddec_super.cif O
986 1 3 -0.498913 17.35574503 18.63722022 11.83891544 # calf20_ddec_super.cif O
987 1 3 -0.498917 15.28488719 15.29002687 16.10461971 # calf20_ddec_super.cif O
988 1 3 -0.498914 16.85898633 13.79047883 9.48959699 # calf20_ddec_super.cif O
989 1 3 -0.504972 16.92385204 10.00182183 14.306991 # calf20_ddec_super.cif O
990 1 3 -0.504996 15.22002856 19.07867358 11.28722759 # calf20_ddec_super.cif O
991 1 3 -0.504964 13.14917864 14.84857427 15.55293752 # calf20_ddec_super.cif O
992 1 3 -0.504947 18.99469982 14.23192646 10.04128499 # calf20_ddec_super.cif O
993 1 2 0.1511 12.83204125 17.45235608 10.72171384 # calf20_ddec_super.cif C
994 1 2 0.151084 19.31183143 11.62814223 14.87251073 # calf20_ddec_super.cif C
995 1 2 0.151075 21.38268742 12.60560555 10.60680636 # calf20_ddec_super.cif C
996 1 2 0.15109 10.76118729 16.47489241 14.98741735 # calf20_ddec_super.cif C
997 1 2 0.163631 19.76827422 16.8883432 11.28601236 # calf20_ddec_super.cif C
998 1 2 0.163688 12.37560106 12.19215623 14.30821031 # calf20_ddec_super.cif C
999 1 2 0.163655 14.44645476 12.04159281 10.04250679 # calf20_ddec_super.cif C
1000 1 2 0.163692 17.69742106 17.03890575 15.55171622 # calf20_ddec_super.cif C
1001 1 2 0.467519 15.95288113 9.997546648 13.50580971 # calf20_ddec_super.cif C
1002 1 2 0.467537 16.19100075 19.08295036 12.08841507 # calf20_ddec_super.cif C
1003 1 2 0.467506 14.12015036 14.84429851 16.35412099 # calf20_ddec_super.cif C
1004 1 2 0.46749 18.02373776 14.2362045 9.240103537 # calf20_ddec_super.cif C
1005 1 1 0.115606 13.80485175 17.50827926 10.24736886 # calf20_ddec_super.cif H
1006 1 1 0.115616 18.3390225 11.57221994 15.34685464 # calf20_ddec_super.cif H
1007 1 1 0.115601 20.40987689 12.66152902 11.08115053 # calf20_ddec_super.cif H
1008 1 1 0.11561 11.73399663 16.41896913 14.5130732 # calf20_ddec_super.cif H
1009 1 1 0.117813 18.81357633 16.38014781 11.34025406 # calf20_ddec_super.cif H
1010 1 1 0.117793 13.33029641 12.70034912 14.2539683 # calf20_ddec_super.cif H
1011 1 1 0.117796 15.40115164 11.53339928 9.988264914 # calf20_ddec_super.cif H
1012 1 1 0.117789 16.74272295 17.54709993 15.6059585 # calf20_ddec_super.cif H
1013 1 5 0.688558 9.28465786 10.24069652 20.80296268 # calf20_ddec_super.cif Zn
1014 1 5 0.688576 14.57579538 18.83980127 21.85407592 # calf20_ddec_super.cif Zn
1015 1 5 0.688578 16.64665401 15.08744532 17.58837295 # calf20_ddec_super.cif Zn
1016 1 5 0.688597 7.213806804 13.99304982 25.06866449 # calf20_ddec_super.cif Zn
1017 1 4 -0.189726 8.305939536 18.29315657 20.21131617 # calf20_ddec_super.cif N
1018 1 4 -0.189706 15.55451832 10.78734158 22.44572089 # calf20_ddec_super.cif N
1019 1 4 -0.189705 17.6253728 13.44640571 18.1800165 # calf20_ddec_super.cif N
1020 1 4 -0.189705 6.235087549 15.63409003 24.47702144 # calf20_ddec_super.cif N
1021 1 4 -0.19279 15.9478854 17.93460127 20.56918875 # calf20_ddec_super.cif N
1022 1 4 -0.192839 7.912573546 11.14589584 22.08784739 # calf20_ddec_super.cif N
1023 1 4 -0.192842 9.98342964 13.08785184 17.82214209 # calf20_ddec_super.cif N
1024 1 4 -0.19284 13.8770321 15.99264581 24.83489436 # calf20_ddec_super.cif N
1025 1 4 -0.317825 16.6342549 16.55390501 18.97841319 # calf20_ddec_super.cif N
1026 1 4 -0.317856 7.226204593 12.5265946 23.67862575 # calf20_ddec_super.cif N
1027 1 4 -0.317783 9.297059033 11.70715609 19.41292048 # calf20_ddec_super.cif N
1028 1 4 -0.317845 14.56340032 17.37334493 23.24411543 # calf20_ddec_super.cif N
1029 1 3 -0.498914 10.6464242 10.44327927 22.28671918 # calf20_ddec_super.cif O
1030 1 3 -0.498913 13.21403673 18.63722022 20.37032299 # calf20_ddec_super.cif O
1031 1 3 -0.498917 11.14317889 15.29002687 24.63602727 # calf20_ddec_super.cif O
1032 1 3 -0.498914 12.71727803 13.79047883 18.02100455 # calf20_ddec_super.cif O
1033 1 3 -0.504972 12.78214374 10.00182183 22.83839855 # calf20_ddec_super.cif O
1034 1 3 -0.504996 11.07832026 19.07867358 19.81863514 # calf20_ddec_super.cif O
1035 1 3 -0.504964 9.007470338 14.84857427 24.08434507 # calf20_ddec_super.cif O
1036 1 3 -0.504947 14.85299151 14.23192646 18.57269254 # calf20_ddec_super.cif O
1037 1 2 0.1511 8.690332946 17.45235608 19.2531214 # calf20_ddec_super.cif C
1038 1 2 0.151084 15.17012313 11.62814223 23.40391829 # calf20_ddec_super.cif C
1039 1 2 0.151075 17.24097912 12.60560555 19.13821392 # calf20_ddec_super.cif C
1040 1 2 0.15109 6.619478989 16.47489241 23.51882491 # calf20_ddec_super.cif C
1041 1 2 0.163631 15.62656591 16.8883432 19.81741992 # calf20_ddec_super.cif C
1042 1 2 0.163688 8.233892752 12.19215623 22.83961786 # calf20_ddec_super.cif C
1043 1 2 0.163655 10.30474646 12.04159281 18.57391435 # calf20_ddec_super.cif C
1044 1 2 0.163692 13.55571276 17.03890575 24.08312377 # calf20_ddec_super.cif C
1045 1 2 0.467519 11.81117282 9.997546648 22.03721727 # calf20_ddec_super.cif C
1046 1 2 0.467537 12.04929244 19.08295036 20.61982263 # calf20_ddec_super.cif C
1047 1 2 0.467506 9.97844206 14.84429851 24.88552855 # calf20_ddec_super.cif C
1048 1 2 0.46749 13.88202946 14.2362045 17.77151109 # calf20_ddec_super.cif C
1049 1 1 0.115606 9.663143446 17.50827926 18.77877642 # calf20_ddec_super.cif H
1050 1 1 0.115616 14.1973142 11.57221994 23.8782622 # calf20_ddec_super.cif H
1051 1 1 0.115601 16.26816859 12.66152902 19.61255809 # calf20_ddec_super.cif H
1052 1 1 0.11561 7.592288327 16.41896913 23.04448076 # calf20_ddec_super.cif H
1053 1 1 0.117813 14.67186803 16.38014781 19.87166162 # calf20_ddec_super.cif H
1054 1 1 0.117793 9.188588111 12.70034912 22.78537586 # calf20_ddec_super.cif H
1055 1 1 0.117796 11.25944334 11.53339928 18.51967247 # calf20_ddec_super.cif H
1056 1 1 0.117789 12.60101464 17.54709993 24.13736606 # calf20_ddec_super.cif H
1057 1 5 0.688558 17.56807447 19.93419609 3.740147571 # calf20_ddec_super.cif Zn
1058 1 5 0.688576 22.85921199 28.53330084 4.791260809 # calf20_ddec_super.cif Zn
1059 1 5 0.688578 24.93007062 24.78094488 0.5255578396 # calf20_ddec_super.cif Zn
1060 1 5 0.688597 15.49722341 23.68654939 8.00584938 # calf20_ddec_super.cif Zn
1061 1 4 -0.189726 16.58935614 27.98665614 3.148501056 # calf20_ddec_super.cif N
1062 1 4 -0.189706 23.83793493 20.48084114 5.382905782 # calf20_ddec_super.cif N
1063 1 4 -0.189705 25.90878941 23.13990527 1.117201382 # calf20_ddec_super.cif N
1064 1 4 -0.189705 14.51850415 25.32758959 7.414206329 # calf20_ddec_super.cif N
1065 1 4 -0.19279 24.23130201 27.62810083 3.506373637 # calf20_ddec_super.cif N
1066 1 4 -0.192839 16.19599015 20.83939541 5.025032275 # calf20_ddec_super.cif N
1067 1 4 -0.192842 18.26684625 22.78135141 0.7593269757 # calf20_ddec_super.cif N
1068 1 4 -0.19284 22.16044871 25.68614537 7.77207925 # calf20_ddec_super.cif N
1069 1 4 -0.317825 24.91767151 26.24740458 1.915598076 # calf20_ddec_super.cif N
1070 1 4 -0.317856 15.5096212 22.22009416 6.615810637 # calf20_ddec_super.cif N
1071 1 4 -0.317783 17.58047564 21.40065566 2.350105369 # calf20_ddec_super.cif N
1072 1 4 -0.317845 22.84681693 27.06684449 6.18130032 # calf20_ddec_super.cif N
1073 1 3 -0.498914 18.9298408 20.13677884 5.223904067 # calf20_ddec_super.cif O
1074 1 3 -0.498913 21.49745334 28.33071978 3.307507881 # calf20_ddec_super.cif O
1075 1 3 -0.498917 19.42659549 24.98352644 7.573212158 # calf20_ddec_super.cif O
1076 1 3 -0.498914 21.00069463 23.48397839 0.9581894332 # calf20_ddec_super.cif O
1077 1 3 -0.504972 21.06556034 19.6953214 5.77558344 # calf20_ddec_super.cif O
1078 1 3 -0.504996 19.36173686 28.77217315 2.755820029 # calf20_ddec_super.cif O
1079 1 3 -0.504964 17.29088694 24.54207383 7.021529959 # calf20_ddec_super.cif O
1080 1 3 -0.504947 23.13640812 23.92542603 1.509877429 # calf20_ddec_super.cif O
1081 1 2 0.1511 16.97374955 27.14585565 2.190306286 # calf20_ddec_super.cif C
1082 1 2 0.151084 23.45353973 21.32164179 6.341103173 # calf20_ddec_super.cif C
1083 1 2 0.151075 25.52439572 22.29910512 2.075398808 # calf20_ddec_super.cif C
1084 1 2 0.15109 14.9028956 26.16839197 6.456009795 # calf20_ddec_super.cif C
1085 1 2 0.163631 23.90998252 26.58184277 2.754604803 # calf20_ddec_super.cif C
1086 1 2 0.163688 16.51730936 21.88565579 5.77680275 # calf20_ddec_super.cif C
1087 1 2 0.163655 18.58816307 21.73509238 1.511099236 # calf20_ddec_super.cif C
1088 1 2 0.163692 21.83912937 26.73240531 7.02030866 # calf20_ddec_super.cif C
1089 1 2 0.467519 20.09458943 19.69104621 4.974402156 # calf20_ddec_super.cif C
1090 1 2 0.467537 20.33270905 28.77644992 3.557007514 # calf20_ddec_super.cif C
1091 1 2 0.467506 18.26185867 24.53779807 7.822713437 # calf20_ddec_super.cif C
1092 1 2 0.46749 22.16544607 23.92970407 0.7086959802 # calf20_ddec_super.cif C
1093 1 1 0.115606 17.94656005 27.20177883 1.715961306 # calf20_ddec_super.cif H
1094 1 1 0.115616 22.4807308 21.2657195 6.815447083 # calf20_ddec_super.cif H
1095 1 1 0.115601 24.5515852 22.35502858 2.549742976 # calf20_ddec_super.cif H
1096 1 1 0.11561 15.87570493 26.1124687 5.981665648 # calf20_ddec_super.cif H
1097 1 1 0.117813 22.95528464 26.07364737 2.808846504 # calf20_ddec_super.cif H
1098 1 1 0.117793 17.47200472 22.39384869 5.722560742 # calf20_ddec_super.cif H
1099 1 1 0.117796 19.54285994 21.22689884 1.456857357 # calf20_ddec_super.cif H
1100 1 1 0.117789 20.88443125 27.24059949 7.074550945 # calf20_ddec_super.cif H
1101 1 5 0.688558 13.42636616 19.93419609 12.27155513 # calf20_ddec_super.cif Zn
1102 1 5 0.688576 18.71750369 28.53330084 13.32266837 # calf20_ddec_super.cif Zn
1103 1 5 0.688578 20.78836232 24.78094488 9.056965396 # calf20_ddec_super.cif Zn
1104 1 5 0.688597 11.35551511 23.68654939 16.53725694 # calf20_ddec_super.cif Zn
1105 1 4 -0.189726 12.44764784 27.98665614 11.67990861 # calf20_ddec_super.cif N
1106 1 4 -0.189706 19.69622663 20.48084114 13.91431334 # calf20_ddec_super.cif N
1107 1 4 -0.189705 21.76708111 23.13990527 9.648608938 # calf20_ddec_super.cif N
1108 1 4 -0.189705 10.37679585 25.32758959 15.94561389 # calf20_ddec_super.cif N
1109 1 4 -0.19279 20.0895937 27.62810083 12.03778119 # calf20_ddec_super.cif N
1110 1 4 -0.192839 12.05428185 20.83939541 13.55643983 # calf20_ddec_super.cif N
1111 1 4 -0.192842 14.12513794 22.78135141 9.290734532 # calf20_ddec_super.cif N
1112 1 4 -0.19284 18.0187404 25.68614537 16.30348681 # calf20_ddec_super.cif N
1113 1 4 -0.317825 20.7759632 26.24740458 10.44700563 # calf20_ddec_super.cif N
1114 1 4 -0.317856 11.3679129 22.22009416 15.14721819 # calf20_ddec_super.cif N
1115 1 4 -0.317783 13.43876734 21.40065566 10.88151293 # calf20_ddec_super.cif N
1116 1 4 -0.317845 18.70510863 27.06684449 14.71270788 # calf20_ddec_super.cif N
1117 1 3 -0.498914 14.7881325 20.13677884 13.75531162 # calf20_ddec_super.cif O
1118 1 3 -0.498913 17.35574503 28.33071978 11.83891544 # calf20_ddec_super.cif O
1119 1 3 -0.498917 15.28488719 24.98352644 16.10461971 # calf20_ddec_super.cif O
1120 1 3 -0.498914 16.85898633 23.48397839 9.48959699 # calf20_ddec_super.cif O
1121 1 3 -0.504972 16.92385204 19.6953214 14.306991 # calf20_ddec_super.cif O
1122 1 3 -0.504996 15.22002856 28.77217315 11.28722759 # calf20_ddec_super.cif O
1123 1 3 -0.504964 13.14917864 24.54207383 15.55293752 # calf20_ddec_super.cif O
1124 1 3 -0.504947 18.99469982 23.92542603 10.04128499 # calf20_ddec_super.cif O
1125 1 2 0.1511 12.83204125 27.14585565 10.72171384 # calf20_ddec_super.cif C
1126 1 2 0.151084 19.31183143 21.32164179 14.87251073 # calf20_ddec_super.cif C
1127 1 2 0.151075 21.38268742 22.29910512 10.60680636 # calf20_ddec_super.cif C
1128 1 2 0.15109 10.76118729 26.16839197 14.98741735 # calf20_ddec_super.cif C
1129 1 2 0.163631 19.76827422 26.58184277 11.28601236 # calf20_ddec_super.cif C
1130 1 2 0.163688 12.37560106 21.88565579 14.30821031 # calf20_ddec_super.cif C
1131 1 2 0.163655 14.44645476 21.73509238 10.04250679 # calf20_ddec_super.cif C
1132 1 2 0.163692 17.69742106 26.73240531 15.55171622 # calf20_ddec_super.cif C
1133 1 2 0.467519 15.95288113 19.69104621 13.50580971 # calf20_ddec_super.cif C
1134 1 2 0.467537 16.19100075 28.77644992 12.08841507 # calf20_ddec_super.cif C
1135 1 2 0.467506 14.12015036 24.53779807 16.35412099 # calf20_ddec_super.cif C
1136 1 2 0.46749 18.02373776 23.92970407 9.240103537 # calf20_ddec_super.cif C
1137 1 1 0.115606 13.80485175 27.20177883 10.24736886 # calf20_ddec_super.cif H
1138 1 1 0.115616 18.3390225 21.2657195 15.34685464 # calf20_ddec_super.cif H
1139 1 1 0.115601 20.40987689 22.35502858 11.08115053 # calf20_ddec_super.cif H
1140 1 1 0.11561 11.73399663 26.1124687 14.5130732 # calf20_ddec_super.cif H
1141 1 1 0.117813 18.81357633 26.07364737 11.34025406 # calf20_ddec_super.cif H
1142 1 1 0.117793 13.33029641 22.39384869 14.2539683 # calf20_ddec_super.cif H
1143 1 1 0.117796 15.40115164 21.22689884 9.988264914 # calf20_ddec_super.cif H
1144 1 1 0.117789 16.74272295 27.24059949 15.6059585 # calf20_ddec_super.cif H
1145 1 5 0.688558 9.28465786 19.93419609 20.80296268 # calf20_ddec_super.cif Zn
1146 1 5 0.688576 14.57579538 28.53330084 21.85407592 # calf20_ddec_super.cif Zn
1147 1 5 0.688578 16.64665401 24.78094488 17.58837295 # calf20_ddec_super.cif Zn
1148 1 5 0.688597 7.213806804 23.68654939 25.06866449 # calf20_ddec_super.cif Zn
1149 1 4 -0.189726 8.305939536 27.98665614 20.21131617 # calf20_ddec_super.cif N
1150 1 4 -0.189706 15.55451832 20.48084114 22.44572089 # calf20_ddec_super.cif N
1151 1 4 -0.189705 17.6253728 23.13990527 18.1800165 # calf20_ddec_super.cif N
1152 1 4 -0.189705 6.235087549 25.32758959 24.47702144 # calf20_ddec_super.cif N
1153 1 4 -0.19279 15.9478854 27.62810083 20.56918875 # calf20_ddec_super.cif N
1154 1 4 -0.192839 7.912573546 20.83939541 22.08784739 # calf20_ddec_super.cif N
1155 1 4 -0.192842 9.98342964 22.78135141 17.82214209 # calf20_ddec_super.cif N
1156 1 4 -0.19284 13.8770321 25.68614537 24.83489436 # calf20_ddec_super.cif N
1157 1 4 -0.317825 16.6342549 26.24740458 18.97841319 # calf20_ddec_super.cif N
1158 1 4 -0.317856 7.226204593 22.22009416 23.67862575 # calf20_ddec_super.cif N
1159 1 4 -0.317783 9.297059033 21.40065566 19.41292048 # calf20_ddec_super.cif N
1160 1 4 -0.317845 14.56340032 27.06684449 23.24411543 # calf20_ddec_super.cif N
1161 1 3 -0.498914 10.6464242 20.13677884 22.28671918 # calf20_ddec_super.cif O
1162 1 3 -0.498913 13.21403673 28.33071978 20.37032299 # calf20_ddec_super.cif O
1163 1 3 -0.498917 11.14317889 24.98352644 24.63602727 # calf20_ddec_super.cif O
1164 1 3 -0.498914 12.71727803 23.48397839 18.02100455 # calf20_ddec_super.cif O
1165 1 3 -0.504972 12.78214374 19.6953214 22.83839855 # calf20_ddec_super.cif O
1166 1 3 -0.504996 11.07832026 28.77217315 19.81863514 # calf20_ddec_super.cif O
1167 1 3 -0.504964 9.007470338 24.54207383 24.08434507 # calf20_ddec_super.cif O
1168 1 3 -0.504947 14.85299151 23.92542603 18.57269254 # calf20_ddec_super.cif O
1169 1 2 0.1511 8.690332946 27.14585565 19.2531214 # calf20_ddec_super.cif C
1170 1 2 0.151084 15.17012313 21.32164179 23.40391829 # calf20_ddec_super.cif C
1171 1 2 0.151075 17.24097912 22.29910512 19.13821392 # calf20_ddec_super.cif C
1172 1 2 0.15109 6.619478989 26.16839197 23.51882491 # calf20_ddec_super.cif C
1173 1 2 0.163631 15.62656591 26.58184277 19.81741992 # calf20_ddec_super.cif C
1174 1 2 0.163688 8.233892752 21.88565579 22.83961786 # calf20_ddec_super.cif C
1175 1 2 0.163655 10.30474646 21.73509238 18.57391435 # calf20_ddec_super.cif C
1176 1 2 0.163692 13.55571276 26.73240531 24.08312377 # calf20_ddec_super.cif C
1177 1 2 0.467519 11.81117282 19.69104621 22.03721727 # calf20_ddec_super.cif C
1178 1 2 0.467537 12.04929244 28.77644992 20.61982263 # calf20_ddec_super.cif C
1179 1 2 0.467506 9.97844206 24.53779807 24.88552855 # calf20_ddec_super.cif C
1180 1 2 0.46749 13.88202946 23.92970407 17.77151109 # calf20_ddec_super.cif C
1181 1 1 0.115606 9.663143446 27.20177883 18.77877642 # calf20_ddec_super.cif H
1182 1 1 0.115616 14.1973142 21.2657195 23.8782622 # calf20_ddec_super.cif H
1183 1 1 0.115601 16.26816859 22.35502858 19.61255809 # calf20_ddec_super.cif H
1184 1 1 0.11561 7.592288327 26.1124687 23.04448076 # calf20_ddec_super.cif H
1185 1 1 0.117813 14.67186803 26.07364737 19.87166162 # calf20_ddec_super.cif H
1186 1 1 0.117793 9.188588111 22.39384869 22.78537586 # calf20_ddec_super.cif H
1187 1 1 0.117796 11.25944334 21.22689884 18.51967247 # calf20_ddec_super.cif H
1188 1 1 0.117789 12.60101464 27.24059949 24.13736606 # calf20_ddec_super.cif H
1189 2 10 0 1.972002719 21.0723846 7.723383727 # TIP4P O_TIP4P
1190 2 8 0.52422 1.929299464 20.54292124 6.927095028 # TIP4P H_TIP4P
1191 2 8 0.52422 1.391521613 20.62597628 8.33981935 # TIP4P H_TIP4P
1192 3 10 0 17.44871957 8.576742324 8.903732599 # TIP4P O_TIP4P
1193 3 8 0.52422 18.35419632 8.617492711 8.596028253 # TIP4P H_TIP4P
1194 3 8 0.52422 17.497218 8.827565168 9.82621153 # TIP4P H_TIP4P
1195 4 10 0 1.261078459 6.509392087 4.715059944 # TIP4P O_TIP4P
1196 4 8 0.52422 1.184082412 6.346553276 5.655158785 # TIP4P H_TIP4P
1197 4 8 0.52422 1.53716738 5.669646128 4.347863528 # TIP4P H_TIP4P
1198 5 10 0 4.90385668 19.15870249 17.24304193 # TIP4P O_TIP4P
1199 5 8 0.52422 4.832114717 18.77677434 18.11780743 # TIP4P H_TIP4P
1200 5 8 0.52422 5.660096396 19.74296406 17.29755324 # TIP4P H_TIP4P
1201 6 10 0 2.247274192 4.056915339 3.869872511 # TIP4P O_TIP4P
1202 6 8 0.52422 2.905625364 4.032184181 3.17547147 # TIP4P H_TIP4P
1203 6 8 0.52422 2.600030494 3.489520543 4.555334188 # TIP4P H_TIP4P
1204 7 10 0 10.07780645 21.38305566 7.550766142 # TIP4P O_TIP4P
1205 7 8 0.52422 9.448182623 20.78219582 7.949228178 # TIP4P H_TIP4P
1206 7 8 0.52422 10.28766583 20.98515836 6.705858836 # TIP4P H_TIP4P
1207 8 10 0 10.36752454 6.148179921 4.733759179 # TIP4P O_TIP4P
1208 8 8 0.52422 10.10220374 5.955769581 5.63309996 # TIP4P H_TIP4P
1209 8 8 0.52422 11.25590846 5.798383345 4.665583468 # TIP4P H_TIP4P
1210 9 10 0 13.90213956 3.736003488 21.10508489 # TIP4P O_TIP4P
1211 9 8 0.52422 14.14603115 3.534896425 20.20158971 # TIP4P H_TIP4P
1212 9 8 0.52422 13.25784087 4.439768971 21.02876374 # TIP4P H_TIP4P
1213 10 10 0 27.17566986 15.61721988 4.446597464 # TIP4P O_TIP4P
1214 10 8 0.52422 27.18489583 15.53752758 5.400429064 # TIP4P H_TIP4P
1215 10 8 0.52422 27.79468085 14.95265687 4.144251669 # TIP4P H_TIP4P
1216 11 10 0 22.06677928 9.239510618 17.40298682 # TIP4P O_TIP4P
1217 11 8 0.52422 22.51324676 8.574434248 17.92698196 # TIP4P H_TIP4P
1218 11 8 0.52422 21.20676555 9.330777204 17.81320429 # TIP4P H_TIP4P
1219 12 10 0 8.924344738 19.31307653 9.237485131 # TIP4P O_TIP4P
1220 12 8 0.52422 9.768013788 18.87380758 9.344704658 # TIP4P H_TIP4P
1221 12 8 0.52422 8.477022031 19.1809113 10.07334775 # TIP4P H_TIP4P
1222 13 10 0 8.905184173 14.00130038 12.46658219 # TIP4P O_TIP4P
1223 13 8 0.52422 9.225582444 14.1674225 11.58002757 # TIP4P H_TIP4P
1224 13 8 0.52422 7.95428203 14.08687721 12.39807456 # TIP4P H_TIP4P
1225 14 10 0 12.18173232 13.63745039 5.929522779 # TIP4P O_TIP4P
1226 14 8 0.52422 11.71484183 14.42379596 6.212196803 # TIP4P H_TIP4P
1227 14 8 0.52422 11.49145652 13.03543157 5.651450436 # TIP4P H_TIP4P
1228 15 10 0 10.14950428 25.488131 21.60563038 # TIP4P O_TIP4P
1229 15 8 0.52422 9.921036965 24.98103108 22.38465736 # TIP4P H_TIP4P
1230 15 8 0.52422 10.63801735 24.87584157 21.05545931 # TIP4P H_TIP4P
1231 16 10 0 16.28318906 3.713581108 12.04647256 # TIP4P O_TIP4P
1232 16 8 0.52422 16.3910481 3.746579902 11.09594208 # TIP4P H_TIP4P
1233 16 8 0.52422 17.15507462 3.501455741 12.37971418 # TIP4P H_TIP4P
1234 17 10 0 7.576451969 23.51927367 14.22673219 # TIP4P O_TIP4P
1235 17 8 0.52422 7.024682761 24.03730443 14.81275742 # TIP4P H_TIP4P
1236 17 8 0.52422 7.61516754 24.03107511 13.41877676 # TIP4P H_TIP4P
1237 18 10 0 15.58708381 5.900063007 13.38506736 # TIP4P O_TIP4P
1238 18 8 0.52422 15.21853343 5.545741774 14.19430019 # TIP4P H_TIP4P
1239 18 8 0.52422 15.90954318 5.132865262 12.9121412 # TIP4P H_TIP4P
1240 19 10 0 11.32323968 4.626509997 21.96739362 # TIP4P O_TIP4P
1241 19 8 0.52422 10.5299556 5.103734028 22.21068008 # TIP4P H_TIP4P
1242 19 8 0.52422 11.74058088 4.413393782 22.80204286 # TIP4P H_TIP4P
1243 20 10 0 12.17631439 19.65132446 25.66053177 # TIP4P O_TIP4P
1244 20 8 0.52422 11.24182829 19.8311539 25.55744061 # TIP4P H_TIP4P
1245 20 8 0.52422 12.53476878 19.72981731 24.77646113 # TIP4P H_TIP4P
1246 21 10 0 23.70460601 11.40659254 16.43918379 # TIP4P O_TIP4P
1247 21 8 0.52422 23.12805182 10.69406349 16.71507929 # TIP4P H_TIP4P
1248 21 8 0.52422 24.18787377 11.04944725 15.69411259 # TIP4P H_TIP4P
1249 22 10 0 12.5256198 4.712206321 3.746198206 # TIP4P O_TIP4P
1250 22 8 0.52422 13.20415834 4.041049701 3.672952367 # TIP4P H_TIP4P
1251 22 8 0.52422 12.0100214 4.620648767 2.944944767 # TIP4P H_TIP4P
1252 23 10 0 19.58565263 11.22603959 25.00721132 # TIP4P O_TIP4P
1253 23 8 0.52422 19.24142701 10.35009526 25.18174199 # TIP4P H_TIP4P
1254 23 8 0.52422 19.86138701 11.19738431 24.09103394 # TIP4P H_TIP4P
1255 24 10 0 6.045062572 15.35320817 13.10410044 # TIP4P O_TIP4P
1256 24 8 0.52422 5.095675628 15.26219466 13.02278826 # TIP4P H_TIP4P
1257 24 8 0.52422 6.202412253 15.39303575 14.04743836 # TIP4P H_TIP4P
1258 25 10 0 19.72737499 10.14516066 8.125756802 # TIP4P O_TIP4P
1259 25 8 0.52422 20.18593067 10.3019189 7.300296783 # TIP4P H_TIP4P
1260 25 8 0.52422 18.83245424 10.44356297 7.963570242 # TIP4P H_TIP4P
1261 26 10 0 21.20716568 26.38259422 18.49774183 # TIP4P O_TIP4P
1262 26 8 0.52422 21.06396659 25.75316777 19.20452826 # TIP4P H_TIP4P
1263 26 8 0.52422 21.22945309 27.23369607 18.93518955 # TIP4P H_TIP4P
1264 27 10 0 22.92546761 7.952850945 15.08452773 # TIP4P O_TIP4P
1265 27 8 0.52422 23.10881589 7.051723074 15.35020171 # TIP4P H_TIP4P
1266 27 8 0.52422 22.36152805 8.297208191 15.77707508 # TIP4P H_TIP4P
1267 28 10 0 9.291383494 4.401447578 13.00357386 # TIP4P O_TIP4P
1268 28 8 0.52422 9.335172117 4.460307826 12.04918991 # TIP4P H_TIP4P
1269 28 8 0.52422 8.39460034 4.657642949 13.21892354 # TIP4P H_TIP4P
1270 29 10 0 11.71634918 19.60667539 8.993177475 # TIP4P O_TIP4P
1271 29 8 0.52422 12.04842867 19.96485095 9.816381081 # TIP4P H_TIP4P
1272 29 8 0.52422 11.34398988 20.36083319 8.536202487 # TIP4P H_TIP4P
1273 30 10 0 6.837116724 5.442097911 13.49638469 # TIP4P O_TIP4P
1274 30 8 0.52422 6.661050178 5.606176792 14.42283458 # TIP4P H_TIP4P
1275 30 8 0.52422 5.995547571 5.15931057 13.13857992 # TIP4P H_TIP4P
1276 31 10 0 -0.2008605587 -0.1058687991 8.849314306 # TIP4P O_TIP4P
1277 31 8 0.52422 -1.044337633 -0.0311844509 8.402996735 # TIP4P H_TIP4P
1278 31 8 0.52422 -0.4249488383 -0.3562129346 9.745608807 # TIP4P H_TIP4P
1279 32 10 0 2.713586468 14.37871872 3.533031506 # TIP4P O_TIP4P
1280 32 8 0.52422 3.080248648 13.85832571 2.818202395 # TIP4P H_TIP4P
1281 32 8 0.52422 2.599435272 15.25265313 3.159615211 # TIP4P H_TIP4P
1282 33 10 0 6.524644311 21.31019553 16.49045972 # TIP4P O_TIP4P
1283 33 8 0.52422 6.731671862 22.21039669 16.23944544 # TIP4P H_TIP4P
1284 33 8 0.52422 6.487889727 20.83241271 15.66184385 # TIP4P H_TIP4P
1285 34 10 0 0.09211915768 2.021932338 11.14565973 # TIP4P O_TIP4P
1286 34 8 0.52422 -0.006738181038 2.97008336 11.05924465 # TIP4P H_TIP4P
1287 34 8 0.52422 0.2449295637 1.714162793 10.25226259 # TIP4P H_TIP4P
1288 35 10 0 1.421410452 1.733589052 24.83982862 # TIP4P O_TIP4P
1289 35 8 0.52422 2.293346604 1.702437454 25.2335133 # TIP4P H_TIP4P
1290 35 8 0.52422 1.519485661 1.279084638 24.00314555 # TIP4P H_TIP4P
1291 36 10 0 13.67295064 1.455205955 2.122708022 # TIP4P O_TIP4P
1292 36 8 0.52422 13.38965448 1.658274598 1.231227728 # TIP4P H_TIP4P
1293 36 8 0.52422 13.22570469 0.6362270761 2.335959595 # TIP4P H_TIP4P
1294 37 10 0 15.52657926 10.13870795 16.87885922 # TIP4P O_TIP4P
1295 37 8 0.52422 15.67339497 10.25874488 15.94063378 # TIP4P H_TIP4P
1296 37 8 0.52422 14.64904914 9.760993627 16.93805669 # TIP4P H_TIP4P
1297 38 10 0 3.241942018 8.904000127 0.411123971 # TIP4P O_TIP4P
1298 38 8 0.52422 2.848311911 8.864022577 1.282724702 # TIP4P H_TIP4P
1299 38 8 0.52422 2.551575635 9.260603543 -0.1478570984 # TIP4P H_TIP4P
1300 39 10 0 11.54206861 1.856785134 24.94391812 # TIP4P O_TIP4P
1301 39 8 0.52422 10.92023205 1.222472882 24.58726989 # TIP4P H_TIP4P
1302 39 8 0.52422 12.24668466 1.891916908 24.29699189 # TIP4P H_TIP4P
1303 40 10 0 13.113259 8.994067405 17.35144991 # TIP4P O_TIP4P
1304 40 8 0.52422 13.0122195 8.839628039 18.29068907 # TIP4P H_TIP4P
1305 40 8 0.52422 12.79799934 8.189059045 16.94059171 # TIP4P H_TIP4P
1306 41 10 0 1.640089116 1.720402324 7.704883608 # TIP4P O_TIP4P
1307 41 8 0.52422 1.480828969 1.50909782 6.784982899 # TIP4P H_TIP4P
1308 41 8 0.52422 1.079111997 1.115750631 8.190612521 # TIP4P H_TIP4P
1309 42 10 0 21.9647317 19.97841678 0.747791791 # TIP4P O_TIP4P
1310 42 8 0.52422 21.51104717 19.31852159 0.2234451616 # TIP4P H_TIP4P
1311 42 8 0.52422 21.88959626 19.66266027 1.648282808 # TIP4P H_TIP4P
1312 43 10 0 -0.3324715361 7.803747594 25.97649739 # TIP4P O_TIP4P
1313 43 8 0.52422 -0.5269235412 8.026407149 26.8869049 # TIP4P H_TIP4P
1314 43 8 0.52422 -0.1116066472 8.640161227 25.56678711 # TIP4P H_TIP4P
1315 44 10 0 21.35316019 24.38077143 20.73394307 # TIP4P O_TIP4P
1316 44 8 0.52422 21.97303427 24.0651382 21.39148584 # TIP4P H_TIP4P
1317 44 8 0.52422 21.54354244 23.85875056 19.95453278 # TIP4P H_TIP4P
1318 45 10 0 7.06051482 24.92268022 11.64200764 # TIP4P O_TIP4P
1319 45 8 0.52422 7.53625235 24.29793655 11.09465049 # TIP4P H_TIP4P
1320 45 8 0.52422 7.221208034 25.7723506 11.23155727 # TIP4P H_TIP4P
1321 46 10 0 21.87759651 1.025171205 1.00095081 # TIP4P O_TIP4P
1322 46 8 0.52422 22.79953492 1.199677028 0.8117208172 # TIP4P H_TIP4P
1323 46 8 0.52422 21.88383954 0.6121584397 1.864439696 # TIP4P H_TIP4P
1324 47 10 0 21.96589978 3.460469437 3.874705176 # TIP4P O_TIP4P
1325 47 8 0.52422 22.24270707 3.69590227 2.989165903 # TIP4P H_TIP4P
1326 47 8 0.52422 21.35735312 2.732172566 3.750261569 # TIP4P H_TIP4P
1327 48 10 0 0.5676797413 10.9839774 10.411598 # TIP4P O_TIP4P
1328 48 8 0.52422 0.1412493285 10.25011149 10.85412328 # TIP4P H_TIP4P
1329 48 8 0.52422 0.02953045482 11.74373053 10.63386384 # TIP4P H_TIP4P
1330 49 10 0 1.397506419 9.360134804 8.406554011 # TIP4P O_TIP4P
1331 49 8 0.52422 1.105907514 9.905085811 9.137463841 # TIP4P H_TIP4P
1332 49 8 0.52422 1.212731321 9.884659824 7.627475555 # TIP4P H_TIP4P
1333 50 10 0 18.98514002 15.9435401 4.665223823 # TIP4P O_TIP4P
1334 50 8 0.52422 19.10997114 15.73002147 5.589917118 # TIP4P H_TIP4P
1335 50 8 0.52422 19.12950021 15.1160584 4.206240449 # TIP4P H_TIP4P
1336 51 10 0 18.23915048 18.94466886 24.4116687 # TIP4P O_TIP4P
1337 51 8 0.52422 18.6152386 19.39437562 23.65499688 # TIP4P H_TIP4P
1338 51 8 0.52422 17.80682851 19.63691373 24.91179502 # TIP4P H_TIP4P
1339 52 10 0 3.397959844 28.66305691 16.9059267 # TIP4P O_TIP4P
1340 52 8 0.52422 4.31554305 28.51931196 16.6743902 # TIP4P H_TIP4P
1341 52 8 0.52422 3.385617358 28.64107602 17.86279455 # TIP4P H_TIP4P
1342 53 10 0 11.25615323 11.83364999 24.62210255 # TIP4P O_TIP4P
1343 53 8 0.52422 11.07919249 11.07870691 24.06087484 # TIP4P H_TIP4P
1344 53 8 0.52422 12.09839503 11.63599203 25.03172635 # TIP4P H_TIP4P
1345 54 10 0 20.12107096 13.28858254 3.938417814 # TIP4P O_TIP4P
1346 54 8 0.52422 20.71221982 13.05208556 3.223685064 # TIP4P H_TIP4P
1347 54 8 0.52422 20.29205126 12.63575306 4.617248411 # TIP4P H_TIP4P
1348 55 10 0 22.07806188 29.01757788 16.8789041 # TIP4P O_TIP4P
1349 55 8 0.52422 21.12905806 28.94525598 16.98084525 # TIP4P H_TIP4P
1350 55 8 0.52422 22.40955198 28.14543311 17.09270163 # TIP4P H_TIP4P
1351 56 10 0 18.13274358 4.930222362 3.65217988 # TIP4P O_TIP4P
1352 56 8 0.52422 19.01165477 4.730846324 3.974662477 # TIP4P H_TIP4P
1353 56 8 0.52422 17.62420502 5.116994814 4.441316215 # TIP4P H_TIP4P
